p cnf 45 1050
1 2 3 10 11 18 0
1 2 4 10 12 19 0
1 2 5 10 13 20 0
1 2 6 10 14 21 0
1 2 7 10 15 22 0
1 2 8 10 16 23 0
1 2 9 10 17 24 0
1 3 4 11 12 25 0
1 3 5 11 13 26 0
1 3 6 11 14 27 0
1 3 7 11 15 28 0
1 3 8 11 16 29 0
1 3 9 11 17 30 0
1 4 5 12 13 31 0
1 4 6 12 14 32 0
1 4 7 12 15 33 0
1 4 8 12 16 34 0
1 4 9 12 17 35 0
1 5 6 13 14 36 0
1 5 7 13 15 37 0
1 5 8 13 16 38 0
1 5 9 13 17 39 0
1 6 7 14 15 40 0
1 6 8 14 16 41 0
1 6 9 14 17 42 0
1 7 8 15 16 43 0
1 7 9 15 17 44 0
1 8 9 16 17 45 0
2 3 4 18 19 25 0
2 3 5 18 20 26 0
2 3 6 18 21 27 0
2 3 7 18 22 28 0
2 3 8 18 23 29 0
2 3 9 18 24 30 0
2 4 5 19 20 31 0
2 4 6 19 21 32 0
2 4 7 19 22 33 0
2 4 8 19 23 34 0
2 4 9 19 24 35 0
2 5 6 20 21 36 0
2 5 7 20 22 37 0
2 5 8 20 23 38 0
2 5 9 20 24 39 0
2 6 7 21 22 40 0
2 6 8 21 23 41 0
2 6 9 21 24 42 0
2 7 8 22 23 43 0
2 7 9 22 24 44 0
2 8 9 23 24 45 0
3 4 5 25 26 31 0
3 4 6 25 27 32 0
3 4 7 25 28 33 0
3 4 8 25 29 34 0
3 4 9 25 30 35 0
3 5 6 26 27 36 0
3 5 7 26 28 37 0
3 5 8 26 29 38 0
3 5 9 26 30 39 0
3 6 7 27 28 40 0
3 6 8 27 29 41 0
3 6 9 27 30 42 0
3 7 8 28 29 43 0
3 7 9 28 30 44 0
3 8 9 29 30 45 0
4 5 6 31 32 36 0
4 5 7 31 33 37 0
4 5 8 31 34 38 0
4 5 9 31 35 39 0
4 6 7 32 33 40 0
4 6 8 32 34 41 0
4 6 9 32 35 42 0
4 7 8 33 34 43 0
4 7 9 33 35 44 0
4 8 9 34 35 45 0
5 6 7 36 37 40 0
5 6 8 36 38 41 0
5 6 9 36 39 42 0
5 7 8 37 38 43 0
5 7 9 37 39 44 0
5 8 9 38 39 45 0
6 7 8 40 41 43 0
6 7 9 40 42 44 0
6 8 9 41 42 45 0
7 8 9 43 44 45 0
10 11 12 18 19 25 0
10 11 13 18 20 26 0
10 11 14 18 21 27 0
10 11 15 18 22 28 0
10 11 16 18 23 29 0
10 11 17 18 24 30 0
10 12 13 19 20 31 0
10 12 14 19 21 32 0
10 12 15 19 22 33 0
10 12 16 19 23 34 0
10 12 17 19 24 35 0
10 13 14 20 21 36 0
10 13 15 20 22 37 0
10 13 16 20 23 38 0
10 13 17 20 24 39 0
10 14 15 21 22 40 0
10 14 16 21 23 41 0
10 14 17 21 24 42 0
10 15 16 22 23 43 0
10 15 17 22 24 44 0
10 16 17 23 24 45 0
11 12 13 25 26 31 0
11 12 14 25 27 32 0
11 12 15 25 28 33 0
11 12 16 25 29 34 0
11 12 17 25 30 35 0
11 13 14 26 27 36 0
11 13 15 26 28 37 0
11 13 16 26 29 38 0
11 13 17 26 30 39 0
11 14 15 27 28 40 0
11 14 16 27 29 41 0
11 14 17 27 30 42 0
11 15 16 28 29 43 0
11 15 17 28 30 44 0
11 16 17 29 30 45 0
12 13 14 31 32 36 0
12 13 15 31 33 37 0
12 13 16 31 34 38 0
12 13 17 31 35 39 0
12 14 15 32 33 40 0
12 14 16 32 34 41 0
12 14 17 32 35 42 0
12 15 16 33 34 43 0
12 15 17 33 35 44 0
12 16 17 34 35 45 0
13 14 15 36 37 40 0
13 14 16 36 38 41 0
13 14 17 36 39 42 0
13 15 16 37 38 43 0
13 15 17 37 39 44 0
13 16 17 38 39 45 0
14 15 16 40 41 43 0
14 15 17 40 42 44 0
14 16 17 41 42 45 0
15 16 17 43 44 45 0
18 19 20 25 26 31 0
18 19 21 25 27 32 0
18 19 22 25 28 33 0
18 19 23 25 29 34 0
18 19 24 25 30 35 0
18 20 21 26 27 36 0
18 20 22 26 28 37 0
18 20 23 26 29 38 0
18 20 24 26 30 39 0
18 21 22 27 28 40 0
18 21 23 27 29 41 0
18 21 24 27 30 42 0
18 22 23 28 29 43 0
18 22 24 28 30 44 0
18 23 24 29 30 45 0
19 20 21 31 32 36 0
19 20 22 31 33 37 0
19 20 23 31 34 38 0
19 20 24 31 35 39 0
19 21 22 32 33 40 0
19 21 23 32 34 41 0
19 21 24 32 35 42 0
19 22 23 33 34 43 0
19 22 24 33 35 44 0
19 23 24 34 35 45 0
20 21 22 36 37 40 0
20 21 23 36 38 41 0
20 21 24 36 39 42 0
20 22 23 37 38 43 0
20 22 24 37 39 44 0
20 23 24 38 39 45 0
21 22 23 40 41 43 0
21 22 24 40 42 44 0
21 23 24 41 42 45 0
22 23 24 43 44 45 0
25 26 27 31 32 36 0
25 26 28 31 33 37 0
25 26 29 31 34 38 0
25 26 30 31 35 39 0
25 27 28 32 33 40 0
25 27 29 32 34 41 0
25 27 30 32 35 42 0
25 28 29 33 34 43 0
25 28 30 33 35 44 0
25 29 30 34 35 45 0
26 27 28 36 37 40 0
26 27 29 36 38 41 0
26 27 30 36 39 42 0
26 28 29 37 38 43 0
26 28 30 37 39 44 0
26 29 30 38 39 45 0
27 28 29 40 41 43 0
27 28 30 40 42 44 0
27 29 30 41 42 45 0
28 29 30 43 44 45 0
31 32 33 36 37 40 0
31 32 34 36 38 41 0
31 32 35 36 39 42 0
31 33 34 37 38 43 0
31 33 35 37 39 44 0
31 34 35 38 39 45 0
32 33 34 40 41 43 0
32 33 35 40 42 44 0
32 34 35 41 42 45 0
33 34 35 43 44 45 0
36 37 38 40 41 43 0
36 37 39 40 42 44 0
36 38 39 41 42 45 0
37 38 39 43 44 45 0
40 41 42 43 44 45 0
-2 -10 -3 0
-2 -10 -4 0
-2 -10 -5 0
-2 -10 -6 0
-2 -10 -7 0
-2 -10 -8 0
-2 -10 -9 0
-3 -11 -4 0
-3 -11 -5 0
-3 -11 -6 0
-3 -11 -7 0
-3 -11 -8 0
-3 -11 -9 0
-4 -12 -5 0
-4 -12 -6 0
-4 -12 -7 0
-4 -12 -8 0
-4 -12 -9 0
-5 -13 -6 0
-5 -13 -7 0
-5 -13 -8 0
-5 -13 -9 0
-6 -14 -7 0
-6 -14 -8 0
-6 -14 -9 0
-7 -15 -8 0
-7 -15 -9 0
-8 -16 -9 0
-3 -18 -4 0
-3 -18 -5 0
-3 -18 -6 0
-3 -18 -7 0
-3 -18 -8 0
-3 -18 -9 0
-4 -19 -5 0
-4 -19 -6 0
-4 -19 -7 0
-4 -19 -8 0
-4 -19 -9 0
-5 -20 -6 0
-5 -20 -7 0
-5 -20 -8 0
-5 -20 -9 0
-6 -21 -7 0
-6 -21 -8 0
-6 -21 -9 0
-7 -22 -8 0
-7 -22 -9 0
-8 -23 -9 0
-4 -25 -5 0
-4 -25 -6 0
-4 -25 -7 0
-4 -25 -8 0
-4 -25 -9 0
-5 -26 -6 0
-5 -26 -7 0
-5 -26 -8 0
-5 -26 -9 0
-6 -27 -7 0
-6 -27 -8 0
-6 -27 -9 0
-7 -28 -8 0
-7 -28 -9 0
-8 -29 -9 0
-5 -31 -6 0
-5 -31 -7 0
-5 -31 -8 0
-5 -31 -9 0
-6 -32 -7 0
-6 -32 -8 0
-6 -32 -9 0
-7 -33 -8 0
-7 -33 -9 0
-8 -34 -9 0
-6 -36 -7 0
-6 -36 -8 0
-6 -36 -9 0
-7 -37 -8 0
-7 -37 -9 0
-8 -38 -9 0
-7 -40 -8 0
-7 -40 -9 0
-8 -41 -9 0
-8 -43 -9 0
-11 -18 -12 0
-11 -18 -13 0
-11 -18 -14 0
-11 -18 -15 0
-11 -18 -16 0
-11 -18 -17 0
-12 -19 -13 0
-12 -19 -14 0
-12 -19 -15 0
-12 -19 -16 0
-12 -19 -17 0
-13 -20 -14 0
-13 -20 -15 0
-13 -20 -16 0
-13 -20 -17 0
-14 -21 -15 0
-14 -21 -16 0
-14 -21 -17 0
-15 -22 -16 0
-15 -22 -17 0
-16 -23 -17 0
-12 -25 -13 0
-12 -25 -14 0
-12 -25 -15 0
-12 -25 -16 0
-12 -25 -17 0
-13 -26 -14 0
-13 -26 -15 0
-13 -26 -16 0
-13 -26 -17 0
-14 -27 -15 0
-14 -27 -16 0
-14 -27 -17 0
-15 -28 -16 0
-15 -28 -17 0
-16 -29 -17 0
-13 -31 -14 0
-13 -31 -15 0
-13 -31 -16 0
-13 -31 -17 0
-14 -32 -15 0
-14 -32 -16 0
-14 -32 -17 0
-15 -33 -16 0
-15 -33 -17 0
-16 -34 -17 0
-14 -36 -15 0
-14 -36 -16 0
-14 -36 -17 0
-15 -37 -16 0
-15 -37 -17 0
-16 -38 -17 0
-15 -40 -16 0
-15 -40 -17 0
-16 -41 -17 0
-16 -43 -17 0
-19 -25 -20 0
-19 -25 -21 0
-19 -25 -22 0
-19 -25 -23 0
-19 -25 -24 0
-20 -26 -21 0
-20 -26 -22 0
-20 -26 -23 0
-20 -26 -24 0
-21 -27 -22 0
-21 -27 -23 0
-21 -27 -24 0
-22 -28 -23 0
-22 -28 -24 0
-23 -29 -24 0
-20 -31 -21 0
-20 -31 -22 0
-20 -31 -23 0
-20 -31 -24 0
-21 -32 -22 0
-21 -32 -23 0
-21 -32 -24 0
-22 -33 -23 0
-22 -33 -24 0
-23 -34 -24 0
-21 -36 -22 0
-21 -36 -23 0
-21 -36 -24 0
-22 -37 -23 0
-22 -37 -24 0
-23 -38 -24 0
-22 -40 -23 0
-22 -40 -24 0
-23 -41 -24 0
-23 -43 -24 0
-26 -31 -27 0
-26 -31 -28 0
-26 -31 -29 0
-26 -31 -30 0
-27 -32 -28 0
-27 -32 -29 0
-27 -32 -30 0
-28 -33 -29 0
-28 -33 -30 0
-29 -34 -30 0
-27 -36 -28 0
-27 -36 -29 0
-27 -36 -30 0
-28 -37 -29 0
-28 -37 -30 0
-29 -38 -30 0
-28 -40 -29 0
-28 -40 -30 0
-29 -41 -30 0
-29 -43 -30 0
-32 -36 -33 0
-32 -36 -34 0
-32 -36 -35 0
-33 -37 -34 0
-33 -37 -35 0
-34 -38 -35 0
-33 -40 -34 0
-33 -40 -35 0
-34 -41 -35 0
-34 -43 -35 0
-37 -40 -38 0
-37 -40 -39 0
-38 -41 -39 0
-38 -43 -39 0
-41 -43 -42 0
-1 -2 -18 0
-1 -2 -19 0
-1 -2 -20 0
-1 -2 -21 0
-1 -2 -22 0
-1 -2 -23 0
-1 -2 -24 0
-1 -3 -25 0
-1 -3 -26 0
-1 -3 -27 0
-1 -3 -28 0
-1 -3 -29 0
-1 -3 -30 0
-1 -4 -31 0
-1 -4 -32 0
-1 -4 -33 0
-1 -4 -34 0
-1 -4 -35 0
-1 -5 -36 0
-1 -5 -37 0
-1 -5 -38 0
-1 -5 -39 0
-1 -6 -40 0
-1 -6 -41 0
-1 -6 -42 0
-1 -7 -43 0
-1 -7 -44 0
-1 -8 -45 0
-2 -3 -25 0
-2 -3 -26 0
-2 -3 -27 0
-2 -3 -28 0
-2 -3 -29 0
-2 -3 -30 0
-2 -4 -31 0
-2 -4 -32 0
-2 -4 -33 0
-2 -4 -34 0
-2 -4 -35 0
-2 -5 -36 0
-2 -5 -37 0
-2 -5 -38 0
-2 -5 -39 0
-2 -6 -40 0
-2 -6 -41 0
-2 -6 -42 0
-2 -7 -43 0
-2 -7 -44 0
-2 -8 -45 0
-3 -4 -31 0
-3 -4 -32 0
-3 -4 -33 0
-3 -4 -34 0
-3 -4 -35 0
-3 -5 -36 0
-3 -5 -37 0
-3 -5 -38 0
-3 -5 -39 0
-3 -6 -40 0
-3 -6 -41 0
-3 -6 -42 0
-3 -7 -43 0
-3 -7 -44 0
-3 -8 -45 0
-4 -5 -36 0
-4 -5 -37 0
-4 -5 -38 0
-4 -5 -39 0
-4 -6 -40 0
-4 -6 -41 0
-4 -6 -42 0
-4 -7 -43 0
-4 -7 -44 0
-4 -8 -45 0
-5 -6 -40 0
-5 -6 -41 0
-5 -6 -42 0
-5 -7 -43 0
-5 -7 -44 0
-5 -8 -45 0
-6 -7 -43 0
-6 -7 -44 0
-6 -8 -45 0
-7 -8 -45 0
-10 -11 -25 0
-10 -11 -26 0
-10 -11 -27 0
-10 -11 -28 0
-10 -11 -29 0
-10 -11 -30 0
-10 -12 -31 0
-10 -12 -32 0
-10 -12 -33 0
-10 -12 -34 0
-10 -12 -35 0
-10 -13 -36 0
-10 -13 -37 0
-10 -13 -38 0
-10 -13 -39 0
-10 -14 -40 0
-10 -14 -41 0
-10 -14 -42 0
-10 -15 -43 0
-10 -15 -44 0
-10 -16 -45 0
-11 -12 -31 0
-11 -12 -32 0
-11 -12 -33 0
-11 -12 -34 0
-11 -12 -35 0
-11 -13 -36 0
-11 -13 -37 0
-11 -13 -38 0
-11 -13 -39 0
-11 -14 -40 0
-11 -14 -41 0
-11 -14 -42 0
-11 -15 -43 0
-11 -15 -44 0
-11 -16 -45 0
-12 -13 -36 0
-12 -13 -37 0
-12 -13 -38 0
-12 -13 -39 0
-12 -14 -40 0
-12 -14 -41 0
-12 -14 -42 0
-12 -15 -43 0
-12 -15 -44 0
-12 -16 -45 0
-13 -14 -40 0
-13 -14 -41 0
-13 -14 -42 0
-13 -15 -43 0
-13 -15 -44 0
-13 -16 -45 0
-14 -15 -43 0
-14 -15 -44 0
-14 -16 -45 0
-15 -16 -45 0
-18 -19 -31 0
-18 -19 -32 0
-18 -19 -33 0
-18 -19 -34 0
-18 -19 -35 0
-18 -20 -36 0
-18 -20 -37 0
-18 -20 -38 0
-18 -20 -39 0
-18 -21 -40 0
-18 -21 -41 0
-18 -21 -42 0
-18 -22 -43 0
-18 -22 -44 0
-18 -23 -45 0
-19 -20 -36 0
-19 -20 -37 0
-19 -20 -38 0
-19 -20 -39 0
-19 -21 -40 0
-19 -21 -41 0
-19 -21 -42 0
-19 -22 -43 0
-19 -22 -44 0
-19 -23 -45 0
-20 -21 -40 0
-20 -21 -41 0
-20 -21 -42 0
-20 -22 -43 0
-20 -22 -44 0
-20 -23 -45 0
-21 -22 -43 0
-21 -22 -44 0
-21 -23 -45 0
-22 -23 -45 0
-25 -26 -36 0
-25 -26 -37 0
-25 -26 -38 0
-25 -26 -39 0
-25 -27 -40 0
-25 -27 -41 0
-25 -27 -42 0
-25 -28 -43 0
-25 -28 -44 0
-25 -29 -45 0
-26 -27 -40 0
-26 -27 -41 0
-26 -27 -42 0
-26 -28 -43 0
-26 -28 -44 0
-26 -29 -45 0
-27 -28 -43 0
-27 -28 -44 0
-27 -29 -45 0
-28 -29 -45 0
-31 -32 -40 0
-31 -32 -41 0
-31 -32 -42 0
-31 -33 -43 0
-31 -33 -44 0
-31 -34 -45 0
-32 -33 -43 0
-32 -33 -44 0
-32 -34 -45 0
-33 -34 -45 0
-36 -37 -43 0
-36 -37 -44 0
-36 -38 -45 0
-37 -38 -45 0
-40 -41 -45 0
-11 -10 -3 0
-12 -10 -4 0
-13 -10 -5 0
-14 -10 -6 0
-15 -10 -7 0
-16 -10 -8 0
-17 -10 -9 0
-12 -11 -4 0
-13 -11 -5 0
-14 -11 -6 0
-15 -11 -7 0
-16 -11 -8 0
-17 -11 -9 0
-13 -12 -5 0
-14 -12 -6 0
-15 -12 -7 0
-16 -12 -8 0
-17 -12 -9 0
-14 -13 -6 0
-15 -13 -7 0
-16 -13 -8 0
-17 -13 -9 0
-15 -14 -7 0
-16 -14 -8 0
-17 -14 -9 0
-16 -15 -8 0
-17 -15 -9 0
-17 -16 -9 0
-19 -18 -4 0
-20 -18 -5 0
-21 -18 -6 0
-22 -18 -7 0
-23 -18 -8 0
-24 -18 -9 0
-20 -19 -5 0
-21 -19 -6 0
-22 -19 -7 0
-23 -19 -8 0
-24 -19 -9 0
-21 -20 -6 0
-22 -20 -7 0
-23 -20 -8 0
-24 -20 -9 0
-22 -21 -7 0
-23 -21 -8 0
-24 -21 -9 0
-23 -22 -8 0
-24 -22 -9 0
-24 -23 -9 0
-26 -25 -5 0
-27 -25 -6 0
-28 -25 -7 0
-29 -25 -8 0
-30 -25 -9 0
-27 -26 -6 0
-28 -26 -7 0
-29 -26 -8 0
-30 -26 -9 0
-28 -27 -7 0
-29 -27 -8 0
-30 -27 -9 0
-29 -28 -8 0
-30 -28 -9 0
-30 -29 -9 0
-32 -31 -6 0
-33 -31 -7 0
-34 -31 -8 0
-35 -31 -9 0
-33 -32 -7 0
-34 -32 -8 0
-35 -32 -9 0
-34 -33 -8 0
-35 -33 -9 0
-35 -34 -9 0
-37 -36 -7 0
-38 -36 -8 0
-39 -36 -9 0
-38 -37 -8 0
-39 -37 -9 0
-39 -38 -9 0
-41 -40 -8 0
-42 -40 -9 0
-42 -41 -9 0
-44 -43 -9 0
-19 -18 -12 0
-20 -18 -13 0
-21 -18 -14 0
-22 -18 -15 0
-23 -18 -16 0
-24 -18 -17 0
-20 -19 -13 0
-21 -19 -14 0
-22 -19 -15 0
-23 -19 -16 0
-24 -19 -17 0
-21 -20 -14 0
-22 -20 -15 0
-23 -20 -16 0
-24 -20 -17 0
-22 -21 -15 0
-23 -21 -16 0
-24 -21 -17 0
-23 -22 -16 0
-24 -22 -17 0
-24 -23 -17 0
-26 -25 -13 0
-27 -25 -14 0
-28 -25 -15 0
-29 -25 -16 0
-30 -25 -17 0
-27 -26 -14 0
-28 -26 -15 0
-29 -26 -16 0
-30 -26 -17 0
-28 -27 -15 0
-29 -27 -16 0
-30 -27 -17 0
-29 -28 -16 0
-30 -28 -17 0
-30 -29 -17 0
-32 -31 -14 0
-33 -31 -15 0
-34 -31 -16 0
-35 -31 -17 0
-33 -32 -15 0
-34 -32 -16 0
-35 -32 -17 0
-34 -33 -16 0
-35 -33 -17 0
-35 -34 -17 0
-37 -36 -15 0
-38 -36 -16 0
-39 -36 -17 0
-38 -37 -16 0
-39 -37 -17 0
-39 -38 -17 0
-41 -40 -16 0
-42 -40 -17 0
-42 -41 -17 0
-44 -43 -17 0
-26 -25 -20 0
-27 -25 -21 0
-28 -25 -22 0
-29 -25 -23 0
-30 -25 -24 0
-27 -26 -21 0
-28 -26 -22 0
-29 -26 -23 0
-30 -26 -24 0
-28 -27 -22 0
-29 -27 -23 0
-30 -27 -24 0
-29 -28 -23 0
-30 -28 -24 0
-30 -29 -24 0
-32 -31 -21 0
-33 -31 -22 0
-34 -31 -23 0
-35 -31 -24 0
-33 -32 -22 0
-34 -32 -23 0
-35 -32 -24 0
-34 -33 -23 0
-35 -33 -24 0
-35 -34 -24 0
-37 -36 -22 0
-38 -36 -23 0
-39 -36 -24 0
-38 -37 -23 0
-39 -37 -24 0
-39 -38 -24 0
-41 -40 -23 0
-42 -40 -24 0
-42 -41 -24 0
-44 -43 -24 0
-32 -31 -27 0
-33 -31 -28 0
-34 -31 -29 0
-35 -31 -30 0
-33 -32 -28 0
-34 -32 -29 0
-35 -32 -30 0
-34 -33 -29 0
-35 -33 -30 0
-35 -34 -30 0
-37 -36 -28 0
-38 -36 -29 0
-39 -36 -30 0
-38 -37 -29 0
-39 -37 -30 0
-39 -38 -30 0
-41 -40 -29 0
-42 -40 -30 0
-42 -41 -30 0
-44 -43 -30 0
-37 -36 -33 0
-38 -36 -34 0
-39 -36 -35 0
-38 -37 -34 0
-39 -37 -35 0
-39 -38 -35 0
-41 -40 -34 0
-42 -40 -35 0
-42 -41 -35 0
-44 -43 -35 0
-41 -40 -38 0
-42 -40 -39 0
-42 -41 -39 0
-44 -43 -39 0
-44 -43 -42 0
-1 -11 -18 0
-1 -12 -19 0
-1 -13 -20 0
-1 -14 -21 0
-1 -15 -22 0
-1 -16 -23 0
-1 -17 -24 0
-1 -12 -25 0
-1 -13 -26 0
-1 -14 -27 0
-1 -15 -28 0
-1 -16 -29 0
-1 -17 -30 0
-1 -13 -31 0
-1 -14 -32 0
-1 -15 -33 0
-1 -16 -34 0
-1 -17 -35 0
-1 -14 -36 0
-1 -15 -37 0
-1 -16 -38 0
-1 -17 -39 0
-1 -15 -40 0
-1 -16 -41 0
-1 -17 -42 0
-1 -16 -43 0
-1 -17 -44 0
-1 -17 -45 0
-2 -19 -25 0
-2 -20 -26 0
-2 -21 -27 0
-2 -22 -28 0
-2 -23 -29 0
-2 -24 -30 0
-2 -20 -31 0
-2 -21 -32 0
-2 -22 -33 0
-2 -23 -34 0
-2 -24 -35 0
-2 -21 -36 0
-2 -22 -37 0
-2 -23 -38 0
-2 -24 -39 0
-2 -22 -40 0
-2 -23 -41 0
-2 -24 -42 0
-2 -23 -43 0
-2 -24 -44 0
-2 -24 -45 0
-3 -26 -31 0
-3 -27 -32 0
-3 -28 -33 0
-3 -29 -34 0
-3 -30 -35 0
-3 -27 -36 0
-3 -28 -37 0
-3 -29 -38 0
-3 -30 -39 0
-3 -28 -40 0
-3 -29 -41 0
-3 -30 -42 0
-3 -29 -43 0
-3 -30 -44 0
-3 -30 -45 0
-4 -32 -36 0
-4 -33 -37 0
-4 -34 -38 0
-4 -35 -39 0
-4 -33 -40 0
-4 -34 -41 0
-4 -35 -42 0
-4 -34 -43 0
-4 -35 -44 0
-4 -35 -45 0
-5 -37 -40 0
-5 -38 -41 0
-5 -39 -42 0
-5 -38 -43 0
-5 -39 -44 0
-5 -39 -45 0
-6 -41 -43 0
-6 -42 -44 0
-6 -42 -45 0
-7 -44 -45 0
-10 -19 -25 0
-10 -20 -26 0
-10 -21 -27 0
-10 -22 -28 0
-10 -23 -29 0
-10 -24 -30 0
-10 -20 -31 0
-10 -21 -32 0
-10 -22 -33 0
-10 -23 -34 0
-10 -24 -35 0
-10 -21 -36 0
-10 -22 -37 0
-10 -23 -38 0
-10 -24 -39 0
-10 -22 -40 0
-10 -23 -41 0
-10 -24 -42 0
-10 -23 -43 0
-10 -24 -44 0
-10 -24 -45 0
-11 -26 -31 0
-11 -27 -32 0
-11 -28 -33 0
-11 -29 -34 0
-11 -30 -35 0
-11 -27 -36 0
-11 -28 -37 0
-11 -29 -38 0
-11 -30 -39 0
-11 -28 -40 0
-11 -29 -41 0
-11 -30 -42 0
-11 -29 -43 0
-11 -30 -44 0
-11 -30 -45 0
-12 -32 -36 0
-12 -33 -37 0
-12 -34 -38 0
-12 -35 -39 0
-12 -33 -40 0
-12 -34 -41 0
-12 -35 -42 0
-12 -34 -43 0
-12 -35 -44 0
-12 -35 -45 0
-13 -37 -40 0
-13 -38 -41 0
-13 -39 -42 0
-13 -38 -43 0
-13 -39 -44 0
-13 -39 -45 0
-14 -41 -43 0
-14 -42 -44 0
-14 -42 -45 0
-15 -44 -45 0
-18 -26 -31 0
-18 -27 -32 0
-18 -28 -33 0
-18 -29 -34 0
-18 -30 -35 0
-18 -27 -36 0
-18 -28 -37 0
-18 -29 -38 0
-18 -30 -39 0
-18 -28 -40 0
-18 -29 -41 0
-18 -30 -42 0
-18 -29 -43 0
-18 -30 -44 0
-18 -30 -45 0
-19 -32 -36 0
-19 -33 -37 0
-19 -34 -38 0
-19 -35 -39 0
-19 -33 -40 0
-19 -34 -41 0
-19 -35 -42 0
-19 -34 -43 0
-19 -35 -44 0
-19 -35 -45 0
-20 -37 -40 0
-20 -38 -41 0
-20 -39 -42 0
-20 -38 -43 0
-20 -39 -44 0
-20 -39 -45 0
-21 -41 -43 0
-21 -42 -44 0
-21 -42 -45 0
-22 -44 -45 0
-25 -32 -36 0
-25 -33 -37 0
-25 -34 -38 0
-25 -35 -39 0
-25 -33 -40 0
-25 -34 -41 0
-25 -35 -42 0
-25 -34 -43 0
-25 -35 -44 0
-25 -35 -45 0
-26 -37 -40 0
-26 -38 -41 0
-26 -39 -42 0
-26 -38 -43 0
-26 -39 -44 0
-26 -39 -45 0
-27 -41 -43 0
-27 -42 -44 0
-27 -42 -45 0
-28 -44 -45 0
-31 -37 -40 0
-31 -38 -41 0
-31 -39 -42 0
-31 -38 -43 0
-31 -39 -44 0
-31 -39 -45 0
-32 -41 -43 0
-32 -42 -44 0
-32 -42 -45 0
-33 -44 -45 0
-36 -41 -43 0
-36 -42 -44 0
-36 -42 -45 0
-37 -44 -45 0
-40 -44 -45 0
