p cnf 36 714
1 2 9 0
1 3 10 0
1 4 11 0
1 5 12 0
1 6 13 0
1 7 14 0
1 8 15 0
2 3 16 0
2 4 17 0
2 5 18 0
2 6 19 0
2 7 20 0
2 8 21 0
3 4 22 0
3 5 23 0
3 6 24 0
3 7 25 0
3 8 26 0
4 5 27 0
4 6 28 0
4 7 29 0
4 8 30 0
5 6 31 0
5 7 32 0
5 8 33 0
6 7 34 0
6 8 35 0
7 8 36 0
9 10 16 0
9 11 17 0
9 12 18 0
9 13 19 0
9 14 20 0
9 15 21 0
10 11 22 0
10 12 23 0
10 13 24 0
10 14 25 0
10 15 26 0
11 12 27 0
11 13 28 0
11 14 29 0
11 15 30 0
12 13 31 0
12 14 32 0
12 15 33 0
13 14 34 0
13 15 35 0
14 15 36 0
16 17 22 0
16 18 23 0
16 19 24 0
16 20 25 0
16 21 26 0
17 18 27 0
17 19 28 0
17 20 29 0
17 21 30 0
18 19 31 0
18 20 32 0
18 21 33 0
19 20 34 0
19 21 35 0
20 21 36 0
22 23 27 0
22 24 28 0
22 25 29 0
22 26 30 0
23 24 31 0
23 25 32 0
23 26 33 0
24 25 34 0
24 26 35 0
25 26 36 0
27 28 31 0
27 29 32 0
27 30 33 0
28 29 34 0
28 30 35 0
29 30 36 0
31 32 34 0
31 33 35 0
32 33 36 0
34 35 36 0
-22 -2 -9 -3 0
-23 -2 -9 -3 0
-24 -2 -9 -3 0
-25 -2 -9 -3 0
-26 -2 -9 -3 0
-27 -2 -9 -4 0
-28 -2 -9 -4 0
-29 -2 -9 -4 0
-30 -2 -9 -4 0
-31 -2 -9 -5 0
-32 -2 -9 -5 0
-33 -2 -9 -5 0
-34 -2 -9 -6 0
-35 -2 -9 -6 0
-36 -2 -9 -7 0
-27 -3 -10 -4 0
-28 -3 -10 -4 0
-29 -3 -10 -4 0
-30 -3 -10 -4 0
-31 -3 -10 -5 0
-32 -3 -10 -5 0
-33 -3 -10 -5 0
-34 -3 -10 -6 0
-35 -3 -10 -6 0
-36 -3 -10 -7 0
-31 -4 -11 -5 0
-32 -4 -11 -5 0
-33 -4 -11 -5 0
-34 -4 -11 -6 0
-35 -4 -11 -6 0
-36 -4 -11 -7 0
-34 -5 -12 -6 0
-35 -5 -12 -6 0
-36 -5 -12 -7 0
-36 -6 -13 -7 0
-27 -3 -16 -4 0
-28 -3 -16 -4 0
-29 -3 -16 -4 0
-30 -3 -16 -4 0
-31 -3 -16 -5 0
-32 -3 -16 -5 0
-33 -3 -16 -5 0
-34 -3 -16 -6 0
-35 -3 -16 -6 0
-36 -3 -16 -7 0
-31 -4 -17 -5 0
-32 -4 -17 -5 0
-33 -4 -17 -5 0
-34 -4 -17 -6 0
-35 -4 -17 -6 0
-36 -4 -17 -7 0
-34 -5 -18 -6 0
-35 -5 -18 -6 0
-36 -5 -18 -7 0
-36 -6 -19 -7 0
-31 -4 -22 -5 0
-32 -4 -22 -5 0
-33 -4 -22 -5 0
-34 -4 -22 -6 0
-35 -4 -22 -6 0
-36 -4 -22 -7 0
-34 -5 -23 -6 0
-35 -5 -23 -6 0
-36 -5 -23 -7 0
-36 -6 -24 -7 0
-34 -5 -27 -6 0
-35 -5 -27 -6 0
-36 -5 -27 -7 0
-36 -6 -28 -7 0
-36 -6 -31 -7 0
-27 -10 -16 -11 0
-28 -10 -16 -11 0
-29 -10 -16 -11 0
-30 -10 -16 -11 0
-31 -10 -16 -12 0
-32 -10 -16 -12 0
-33 -10 -16 -12 0
-34 -10 -16 -13 0
-35 -10 -16 -13 0
-36 -10 -16 -14 0
-31 -11 -17 -12 0
-32 -11 -17 -12 0
-33 -11 -17 -12 0
-34 -11 -17 -13 0
-35 -11 -17 -13 0
-36 -11 -17 -14 0
-34 -12 -18 -13 0
-35 -12 -18 -13 0
-36 -12 -18 -14 0
-36 -13 -19 -14 0
-31 -11 -22 -12 0
-32 -11 -22 -12 0
-33 -11 -22 -12 0
-34 -11 -22 -13 0
-35 -11 -22 -13 0
-36 -11 -22 -14 0
-34 -12 -23 -13 0
-35 -12 -23 -13 0
-36 -12 -23 -14 0
-36 -13 -24 -14 0
-34 -12 -27 -13 0
-35 -12 -27 -13 0
-36 -12 -27 -14 0
-36 -13 -28 -14 0
-36 -13 -31 -14 0
-31 -17 -22 -18 0
-32 -17 -22 -18 0
-33 -17 -22 -18 0
-34 -17 -22 -19 0
-35 -17 -22 -19 0
-36 -17 -22 -20 0
-34 -18 -23 -19 0
-35 -18 -23 -19 0
-36 -18 -23 -20 0
-36 -19 -24 -20 0
-34 -18 -27 -19 0
-35 -18 -27 -19 0
-36 -18 -27 -20 0
-36 -19 -28 -20 0
-36 -19 -31 -20 0
-34 -23 -27 -24 0
-35 -23 -27 -24 0
-36 -23 -27 -25 0
-36 -24 -28 -25 0
-36 -24 -31 -25 0
-36 -28 -31 -29 0
-10 -4 -9 -3 0
-10 -5 -9 -3 0
-10 -6 -9 -3 0
-10 -7 -9 -3 0
-10 -8 -9 -3 0
-11 -5 -9 -4 0
-11 -6 -9 -4 0
-11 -7 -9 -4 0
-11 -8 -9 -4 0
-12 -6 -9 -5 0
-12 -7 -9 -5 0
-12 -8 -9 -5 0
-13 -7 -9 -6 0
-13 -8 -9 -6 0
-14 -8 -9 -7 0
-11 -5 -10 -4 0
-11 -6 -10 -4 0
-11 -7 -10 -4 0
-11 -8 -10 -4 0
-12 -6 -10 -5 0
-12 -7 -10 -5 0
-12 -8 -10 -5 0
-13 -7 -10 -6 0
-13 -8 -10 -6 0
-14 -8 -10 -7 0
-12 -6 -11 -5 0
-12 -7 -11 -5 0
-12 -8 -11 -5 0
-13 -7 -11 -6 0
-13 -8 -11 -6 0
-14 -8 -11 -7 0
-13 -7 -12 -6 0
-13 -8 -12 -6 0
-14 -8 -12 -7 0
-14 -8 -13 -7 0
-17 -5 -16 -4 0
-17 -6 -16 -4 0
-17 -7 -16 -4 0
-17 -8 -16 -4 0
-18 -6 -16 -5 0
-18 -7 -16 -5 0
-18 -8 -16 -5 0
-19 -7 -16 -6 0
-19 -8 -16 -6 0
-20 -8 -16 -7 0
-18 -6 -17 -5 0
-18 -7 -17 -5 0
-18 -8 -17 -5 0
-19 -7 -17 -6 0
-19 -8 -17 -6 0
-20 -8 -17 -7 0
-19 -7 -18 -6 0
-19 -8 -18 -6 0
-20 -8 -18 -7 0
-20 -8 -19 -7 0
-23 -6 -22 -5 0
-23 -7 -22 -5 0
-23 -8 -22 -5 0
-24 -7 -22 -6 0
-24 -8 -22 -6 0
-25 -8 -22 -7 0
-24 -7 -23 -6 0
-24 -8 -23 -6 0
-25 -8 -23 -7 0
-25 -8 -24 -7 0
-28 -7 -27 -6 0
-28 -8 -27 -6 0
-29 -8 -27 -7 0
-29 -8 -28 -7 0
-32 -8 -31 -7 0
-17 -12 -16 -11 0
-17 -13 -16 -11 0
-17 -14 -16 -11 0
-17 -15 -16 -11 0
-18 -13 -16 -12 0
-18 -14 -16 -12 0
-18 -15 -16 -12 0
-19 -14 -16 -13 0
-19 -15 -16 -13 0
-20 -15 -16 -14 0
-18 -13 -17 -12 0
-18 -14 -17 -12 0
-18 -15 -17 -12 0
-19 -14 -17 -13 0
-19 -15 -17 -13 0
-20 -15 -17 -14 0
-19 -14 -18 -13 0
-19 -15 -18 -13 0
-20 -15 -18 -14 0
-20 -15 -19 -14 0
-23 -13 -22 -12 0
-23 -14 -22 -12 0
-23 -15 -22 -12 0
-24 -14 -22 -13 0
-24 -15 -22 -13 0
-25 -15 -22 -14 0
-24 -14 -23 -13 0
-24 -15 -23 -13 0
-25 -15 -23 -14 0
-25 -15 -24 -14 0
-28 -14 -27 -13 0
-28 -15 -27 -13 0
-29 -15 -27 -14 0
-29 -15 -28 -14 0
-32 -15 -31 -14 0
-23 -19 -22 -18 0
-23 -20 -22 -18 0
-23 -21 -22 -18 0
-24 -20 -22 -19 0
-24 -21 -22 -19 0
-25 -21 -22 -20 0
-24 -20 -23 -19 0
-24 -21 -23 -19 0
-25 -21 -23 -20 0
-25 -21 -24 -20 0
-28 -20 -27 -19 0
-28 -21 -27 -19 0
-29 -21 -27 -20 0
-29 -21 -28 -20 0
-32 -21 -31 -20 0
-28 -25 -27 -24 0
-28 -26 -27 -24 0
-29 -26 -27 -25 0
-29 -26 -28 -25 0
-32 -26 -31 -25 0
-32 -30 -31 -29 0
-1 -17 -11 -16 0
-1 -18 -12 -16 0
-1 -19 -13 -16 0
-1 -20 -14 -16 0
-1 -21 -15 -16 0
-1 -18 -12 -17 0
-1 -19 -13 -17 0
-1 -20 -14 -17 0
-1 -21 -15 -17 0
-1 -19 -13 -18 0
-1 -20 -14 -18 0
-1 -21 -15 -18 0
-1 -20 -14 -19 0
-1 -21 -15 -19 0
-1 -21 -15 -20 0
-1 -23 -12 -22 0
-1 -24 -13 -22 0
-1 -25 -14 -22 0
-1 -26 -15 -22 0
-1 -24 -13 -23 0
-1 -25 -14 -23 0
-1 -26 -15 -23 0
-1 -25 -14 -24 0
-1 -26 -15 -24 0
-1 -26 -15 -25 0
-1 -28 -13 -27 0
-1 -29 -14 -27 0
-1 -30 -15 -27 0
-1 -29 -14 -28 0
-1 -30 -15 -28 0
-1 -30 -15 -29 0
-1 -32 -14 -31 0
-1 -33 -15 -31 0
-1 -33 -15 -32 0
-1 -35 -15 -34 0
-2 -23 -18 -22 0
-2 -24 -19 -22 0
-2 -25 -20 -22 0
-2 -26 -21 -22 0
-2 -24 -19 -23 0
-2 -25 -20 -23 0
-2 -26 -21 -23 0
-2 -25 -20 -24 0
-2 -26 -21 -24 0
-2 -26 -21 -25 0
-2 -28 -19 -27 0
-2 -29 -20 -27 0
-2 -30 -21 -27 0
-2 -29 -20 -28 0
-2 -30 -21 -28 0
-2 -30 -21 -29 0
-2 -32 -20 -31 0
-2 -33 -21 -31 0
-2 -33 -21 -32 0
-2 -35 -21 -34 0
-3 -28 -24 -27 0
-3 -29 -25 -27 0
-3 -30 -26 -27 0
-3 -29 -25 -28 0
-3 -30 -26 -28 0
-3 -30 -26 -29 0
-3 -32 -25 -31 0
-3 -33 -26 -31 0
-3 -33 -26 -32 0
-3 -35 -26 -34 0
-4 -32 -29 -31 0
-4 -33 -30 -31 0
-4 -33 -30 -32 0
-4 -35 -30 -34 0
-5 -35 -33 -34 0
-9 -23 -18 -22 0
-9 -24 -19 -22 0
-9 -25 -20 -22 0
-9 -26 -21 -22 0
-9 -24 -19 -23 0
-9 -25 -20 -23 0
-9 -26 -21 -23 0
-9 -25 -20 -24 0
-9 -26 -21 -24 0
-9 -26 -21 -25 0
-9 -28 -19 -27 0
-9 -29 -20 -27 0
-9 -30 -21 -27 0
-9 -29 -20 -28 0
-9 -30 -21 -28 0
-9 -30 -21 -29 0
-9 -32 -20 -31 0
-9 -33 -21 -31 0
-9 -33 -21 -32 0
-9 -35 -21 -34 0
-10 -28 -24 -27 0
-10 -29 -25 -27 0
-10 -30 -26 -27 0
-10 -29 -25 -28 0
-10 -30 -26 -28 0
-10 -30 -26 -29 0
-10 -32 -25 -31 0
-10 -33 -26 -31 0
-10 -33 -26 -32 0
-10 -35 -26 -34 0
-11 -32 -29 -31 0
-11 -33 -30 -31 0
-11 -33 -30 -32 0
-11 -35 -30 -34 0
-12 -35 -33 -34 0
-16 -28 -24 -27 0
-16 -29 -25 -27 0
-16 -30 -26 -27 0
-16 -29 -25 -28 0
-16 -30 -26 -28 0
-16 -30 -26 -29 0
-16 -32 -25 -31 0
-16 -33 -26 -31 0
-16 -33 -26 -32 0
-16 -35 -26 -34 0
-17 -32 -29 -31 0
-17 -33 -30 -31 0
-17 -33 -30 -32 0
-17 -35 -30 -34 0
-18 -35 -33 -34 0
-22 -32 -29 -31 0
-22 -33 -30 -31 0
-22 -33 -30 -32 0
-22 -35 -30 -34 0
-23 -35 -33 -34 0
-27 -35 -33 -34 0
-22 -17 -2 -1 0
-23 -18 -2 -1 0
-24 -19 -2 -1 0
-25 -20 -2 -1 0
-26 -21 -2 -1 0
-27 -18 -2 -1 0
-28 -19 -2 -1 0
-29 -20 -2 -1 0
-30 -21 -2 -1 0
-31 -19 -2 -1 0
-32 -20 -2 -1 0
-33 -21 -2 -1 0
-34 -20 -2 -1 0
-35 -21 -2 -1 0
-36 -21 -2 -1 0
-27 -23 -3 -1 0
-28 -24 -3 -1 0
-29 -25 -3 -1 0
-30 -26 -3 -1 0
-31 -24 -3 -1 0
-32 -25 -3 -1 0
-33 -26 -3 -1 0
-34 -25 -3 -1 0
-35 -26 -3 -1 0
-36 -26 -3 -1 0
-31 -28 -4 -1 0
-32 -29 -4 -1 0
-33 -30 -4 -1 0
-34 -29 -4 -1 0
-35 -30 -4 -1 0
-36 -30 -4 -1 0
-34 -32 -5 -1 0
-35 -33 -5 -1 0
-36 -33 -5 -1 0
-36 -35 -6 -1 0
-27 -23 -3 -2 0
-28 -24 -3 -2 0
-29 -25 -3 -2 0
-30 -26 -3 -2 0
-31 -24 -3 -2 0
-32 -25 -3 -2 0
-33 -26 -3 -2 0
-34 -25 -3 -2 0
-35 -26 -3 -2 0
-36 -26 -3 -2 0
-31 -28 -4 -2 0
-32 -29 -4 -2 0
-33 -30 -4 -2 0
-34 -29 -4 -2 0
-35 -30 -4 -2 0
-36 -30 -4 -2 0
-34 -32 -5 -2 0
-35 -33 -5 -2 0
-36 -33 -5 -2 0
-36 -35 -6 -2 0
-31 -28 -4 -3 0
-32 -29 -4 -3 0
-33 -30 -4 -3 0
-34 -29 -4 -3 0
-35 -30 -4 -3 0
-36 -30 -4 -3 0
-34 -32 -5 -3 0
-35 -33 -5 -3 0
-36 -33 -5 -3 0
-36 -35 -6 -3 0
-34 -32 -5 -4 0
-35 -33 -5 -4 0
-36 -33 -5 -4 0
-36 -35 -6 -4 0
-36 -35 -6 -5 0
-27 -23 -10 -9 0
-28 -24 -10 -9 0
-29 -25 -10 -9 0
-30 -26 -10 -9 0
-31 -24 -10 -9 0
-32 -25 -10 -9 0
-33 -26 -10 -9 0
-34 -25 -10 -9 0
-35 -26 -10 -9 0
-36 -26 -10 -9 0
-31 -28 -11 -9 0
-32 -29 -11 -9 0
-33 -30 -11 -9 0
-34 -29 -11 -9 0
-35 -30 -11 -9 0
-36 -30 -11 -9 0
-34 -32 -12 -9 0
-35 -33 -12 -9 0
-36 -33 -12 -9 0
-36 -35 -13 -9 0
-31 -28 -11 -10 0
-32 -29 -11 -10 0
-33 -30 -11 -10 0
-34 -29 -11 -10 0
-35 -30 -11 -10 0
-36 -30 -11 -10 0
-34 -32 -12 -10 0
-35 -33 -12 -10 0
-36 -33 -12 -10 0
-36 -35 -13 -10 0
-34 -32 -12 -11 0
-35 -33 -12 -11 0
-36 -33 -12 -11 0
-36 -35 -13 -11 0
-36 -35 -13 -12 0
-31 -28 -17 -16 0
-32 -29 -17 -16 0
-33 -30 -17 -16 0
-34 -29 -17 -16 0
-35 -30 -17 -16 0
-36 -30 -17 -16 0
-34 -32 -18 -16 0
-35 -33 -18 -16 0
-36 -33 -18 -16 0
-36 -35 -19 -16 0
-34 -32 -18 -17 0
-35 -33 -18 -17 0
-36 -33 -18 -17 0
-36 -35 -19 -17 0
-36 -35 -19 -18 0
-34 -32 -23 -22 0
-35 -33 -23 -22 0
-36 -33 -23 -22 0
-36 -35 -24 -22 0
-36 -35 -24 -23 0
-36 -35 -28 -27 0
-11 -10 -16 -4 0
-12 -10 -16 -5 0
-13 -10 -16 -6 0
-14 -10 -16 -7 0
-15 -10 -16 -8 0
-12 -11 -17 -5 0
-13 -11 -17 -6 0
-14 -11 -17 -7 0
-15 -11 -17 -8 0
-13 -12 -18 -6 0
-14 -12 -18 -7 0
-15 -12 -18 -8 0
-14 -13 -19 -7 0
-15 -13 -19 -8 0
-15 -14 -20 -8 0
-12 -11 -22 -5 0
-13 -11 -22 -6 0
-14 -11 -22 -7 0
-15 -11 -22 -8 0
-13 -12 -23 -6 0
-14 -12 -23 -7 0
-15 -12 -23 -8 0
-14 -13 -24 -7 0
-15 -13 -24 -8 0
-15 -14 -25 -8 0
-13 -12 -27 -6 0
-14 -12 -27 -7 0
-15 -12 -27 -8 0
-14 -13 -28 -7 0
-15 -13 -28 -8 0
-15 -14 -29 -8 0
-14 -13 -31 -7 0
-15 -13 -31 -8 0
-15 -14 -32 -8 0
-15 -14 -34 -8 0
-18 -17 -22 -5 0
-19 -17 -22 -6 0
-20 -17 -22 -7 0
-21 -17 -22 -8 0
-19 -18 -23 -6 0
-20 -18 -23 -7 0
-21 -18 -23 -8 0
-20 -19 -24 -7 0
-21 -19 -24 -8 0
-21 -20 -25 -8 0
-19 -18 -27 -6 0
-20 -18 -27 -7 0
-21 -18 -27 -8 0
-20 -19 -28 -7 0
-21 -19 -28 -8 0
-21 -20 -29 -8 0
-20 -19 -31 -7 0
-21 -19 -31 -8 0
-21 -20 -32 -8 0
-21 -20 -34 -8 0
-24 -23 -27 -6 0
-25 -23 -27 -7 0
-26 -23 -27 -8 0
-25 -24 -28 -7 0
-26 -24 -28 -8 0
-26 -25 -29 -8 0
-25 -24 -31 -7 0
-26 -24 -31 -8 0
-26 -25 -32 -8 0
-26 -25 -34 -8 0
-29 -28 -31 -7 0
-30 -28 -31 -8 0
-30 -29 -32 -8 0
-30 -29 -34 -8 0
-33 -32 -34 -8 0
-18 -17 -22 -12 0
-19 -17 -22 -13 0
-20 -17 -22 -14 0
-21 -17 -22 -15 0
-19 -18 -23 -13 0
-20 -18 -23 -14 0
-21 -18 -23 -15 0
-20 -19 -24 -14 0
-21 -19 -24 -15 0
-21 -20 -25 -15 0
-19 -18 -27 -13 0
-20 -18 -27 -14 0
-21 -18 -27 -15 0
-20 -19 -28 -14 0
-21 -19 -28 -15 0
-21 -20 -29 -15 0
-20 -19 -31 -14 0
-21 -19 -31 -15 0
-21 -20 -32 -15 0
-21 -20 -34 -15 0
-24 -23 -27 -13 0
-25 -23 -27 -14 0
-26 -23 -27 -15 0
-25 -24 -28 -14 0
-26 -24 -28 -15 0
-26 -25 -29 -15 0
-25 -24 -31 -14 0
-26 -24 -31 -15 0
-26 -25 -32 -15 0
-26 -25 -34 -15 0
-29 -28 -31 -14 0
-30 -28 -31 -15 0
-30 -29 -32 -15 0
-30 -29 -34 -15 0
-33 -32 -34 -15 0
-24 -23 -27 -19 0
-25 -23 -27 -20 0
-26 -23 -27 -21 0
-25 -24 -28 -20 0
-26 -24 -28 -21 0
-26 -25 -29 -21 0
-25 -24 -31 -20 0
-26 -24 -31 -21 0
-26 -25 -32 -21 0
-26 -25 -34 -21 0
-29 -28 -31 -20 0
-30 -28 -31 -21 0
-30 -29 -32 -21 0
-30 -29 -34 -21 0
-33 -32 -34 -21 0
-29 -28 -31 -25 0
-30 -28 -31 -26 0
-30 -29 -32 -26 0
-30 -29 -34 -26 0
-33 -32 -34 -26 0
-33 -32 -34 -30 0
