p cnf 21 175
1 2 7 0
1 3 8 0
1 4 9 0
1 5 10 0
1 6 11 0
2 3 12 0
2 4 13 0
2 5 14 0
2 6 15 0
3 4 16 0
3 5 17 0
3 6 18 0
4 5 19 0
4 6 20 0
5 6 21 0
7 8 12 0
7 9 13 0
7 10 14 0
7 11 15 0
8 9 16 0
8 10 17 0
8 11 18 0
9 10 19 0
9 11 20 0
10 11 21 0
12 13 16 0
12 14 17 0
12 15 18 0
13 14 19 0
13 15 20 0
14 15 21 0
16 17 19 0
16 18 20 0
17 18 21 0
19 20 21 0
-2 -7 -3 0
-2 -7 -4 0
-2 -7 -5 0
-2 -7 -6 0
-3 -8 -4 0
-3 -8 -5 0
-3 -8 -6 0
-4 -9 -5 0
-4 -9 -6 0
-5 -10 -6 0
-3 -12 -4 0
-3 -12 -5 0
-3 -12 -6 0
-4 -13 -5 0
-4 -13 -6 0
-5 -14 -6 0
-4 -16 -5 0
-4 -16 -6 0
-5 -17 -6 0
-5 -19 -6 0
-8 -12 -9 0
-8 -12 -10 0
-8 -12 -11 0
-9 -13 -10 0
-9 -13 -11 0
-10 -14 -11 0
-9 -16 -10 0
-9 -16 -11 0
-10 -17 -11 0
-10 -19 -11 0
-13 -16 -14 0
-13 -16 -15 0
-14 -17 -15 0
-14 -19 -15 0
-17 -19 -18 0
-1 -2 -12 0
-1 -2 -13 0
-1 -2 -14 0
-1 -2 -15 0
-1 -3 -16 0
-1 -3 -17 0
-1 -3 -18 0
-1 -4 -19 0
-1 -4 -20 0
-1 -5 -21 0
-2 -3 -16 0
-2 -3 -17 0
-2 -3 -18 0
-2 -4 -19 0
-2 -4 -20 0
-2 -5 -21 0
-3 -4 -19 0
-3 -4 -20 0
-3 -5 -21 0
-4 -5 -21 0
-7 -8 -16 0
-7 -8 -17 0
-7 -8 -18 0
-7 -9 -19 0
-7 -9 -20 0
-7 -10 -21 0
-8 -9 -19 0
-8 -9 -20 0
-8 -10 -21 0
-9 -10 -21 0
-12 -13 -19 0
-12 -13 -20 0
-12 -14 -21 0
-13 -14 -21 0
-16 -17 -21 0
-8 -7 -3 0
-9 -7 -4 0
-10 -7 -5 0
-11 -7 -6 0
-9 -8 -4 0
-10 -8 -5 0
-11 -8 -6 0
-10 -9 -5 0
-11 -9 -6 0
-11 -10 -6 0
-13 -12 -4 0
-14 -12 -5 0
-15 -12 -6 0
-14 -13 -5 0
-15 -13 -6 0
-15 -14 -6 0
-17 -16 -5 0
-18 -16 -6 0
-18 -17 -6 0
-20 -19 -6 0
-13 -12 -9 0
-14 -12 -10 0
-15 -12 -11 0
-14 -13 -10 0
-15 -13 -11 0
-15 -14 -11 0
-17 -16 -10 0
-18 -16 -11 0
-18 -17 -11 0
-20 -19 -11 0
-17 -16 -14 0
-18 -16 -15 0
-18 -17 -15 0
-20 -19 -15 0
-20 -19 -18 0
-1 -8 -12 0
-1 -9 -13 0
-1 -10 -14 0
-1 -11 -15 0
-1 -9 -16 0
-1 -10 -17 0
-1 -11 -18 0
-1 -10 -19 0
-1 -11 -20 0
-1 -11 -21 0
-2 -13 -16 0
-2 -14 -17 0
-2 -15 -18 0
-2 -14 -19 0
-2 -15 -20 0
-2 -15 -21 0
-3 -17 -19 0
-3 -18 -20 0
-3 -18 -21 0
-4 -20 -21 0
-7 -13 -16 0
-7 -14 -17 0
-7 -15 -18 0
-7 -14 -19 0
-7 -15 -20 0
-7 -15 -21 0
-8 -17 -19 0
-8 -18 -20 0
-8 -18 -21 0
-9 -20 -21 0
-12 -17 -19 0
-12 -18 -20 0
-12 -18 -21 0
-13 -20 -21 0
-16 -20 -21 0
