p cnf 55 2937
1 2 11 0
1 3 12 0
1 4 13 0
1 5 14 0
1 6 15 0
1 7 16 0
1 8 17 0
1 9 18 0
1 10 19 0
2 3 20 0
2 4 21 0
2 5 22 0
2 6 23 0
2 7 24 0
2 8 25 0
2 9 26 0
2 10 27 0
3 4 28 0
3 5 29 0
3 6 30 0
3 7 31 0
3 8 32 0
3 9 33 0
3 10 34 0
4 5 35 0
4 6 36 0
4 7 37 0
4 8 38 0
4 9 39 0
4 10 40 0
5 6 41 0
5 7 42 0
5 8 43 0
5 9 44 0
5 10 45 0
6 7 46 0
6 8 47 0
6 9 48 0
6 10 49 0
7 8 50 0
7 9 51 0
7 10 52 0
8 9 53 0
8 10 54 0
9 10 55 0
11 12 20 0
11 13 21 0
11 14 22 0
11 15 23 0
11 16 24 0
11 17 25 0
11 18 26 0
11 19 27 0
12 13 28 0
12 14 29 0
12 15 30 0
12 16 31 0
12 17 32 0
12 18 33 0
12 19 34 0
13 14 35 0
13 15 36 0
13 16 37 0
13 17 38 0
13 18 39 0
13 19 40 0
14 15 41 0
14 16 42 0
14 17 43 0
14 18 44 0
14 19 45 0
15 16 46 0
15 17 47 0
15 18 48 0
15 19 49 0
16 17 50 0
16 18 51 0
16 19 52 0
17 18 53 0
17 19 54 0
18 19 55 0
20 21 28 0
20 22 29 0
20 23 30 0
20 24 31 0
20 25 32 0
20 26 33 0
20 27 34 0
21 22 35 0
21 23 36 0
21 24 37 0
21 25 38 0
21 26 39 0
21 27 40 0
22 23 41 0
22 24 42 0
22 25 43 0
22 26 44 0
22 27 45 0
23 24 46 0
23 25 47 0
23 26 48 0
23 27 49 0
24 25 50 0
24 26 51 0
24 27 52 0
25 26 53 0
25 27 54 0
26 27 55 0
28 29 35 0
28 30 36 0
28 31 37 0
28 32 38 0
28 33 39 0
28 34 40 0
29 30 41 0
29 31 42 0
29 32 43 0
29 33 44 0
29 34 45 0
30 31 46 0
30 32 47 0
30 33 48 0
30 34 49 0
31 32 50 0
31 33 51 0
31 34 52 0
32 33 53 0
32 34 54 0
33 34 55 0
35 36 41 0
35 37 42 0
35 38 43 0
35 39 44 0
35 40 45 0
36 37 46 0
36 38 47 0
36 39 48 0
36 40 49 0
37 38 50 0
37 39 51 0
37 40 52 0
38 39 53 0
38 40 54 0
39 40 55 0
41 42 46 0
41 43 47 0
41 44 48 0
41 45 49 0
42 43 50 0
42 44 51 0
42 45 52 0
43 44 53 0
43 45 54 0
44 45 55 0
46 47 50 0
46 48 51 0
46 49 52 0
47 48 53 0
47 49 54 0
48 49 55 0
50 51 53 0
50 52 54 0
51 52 55 0
53 54 55 0
-13 -20 -5 -21 -14 0
-13 -20 -6 -21 -15 0
-13 -20 -7 -21 -16 0
-13 -20 -8 -21 -17 0
-13 -20 -9 -21 -18 0
-13 -20 -10 -21 -19 0
-14 -20 -6 -22 -15 0
-14 -20 -7 -22 -16 0
-14 -20 -8 -22 -17 0
-14 -20 -9 -22 -18 0
-14 -20 -10 -22 -19 0
-15 -20 -7 -23 -16 0
-15 -20 -8 -23 -17 0
-15 -20 -9 -23 -18 0
-15 -20 -10 -23 -19 0
-16 -20 -8 -24 -17 0
-16 -20 -9 -24 -18 0
-16 -20 -10 -24 -19 0
-17 -20 -9 -25 -18 0
-17 -20 -10 -25 -19 0
-18 -20 -10 -26 -19 0
-14 -21 -6 -22 -15 0
-14 -21 -7 -22 -16 0
-14 -21 -8 -22 -17 0
-14 -21 -9 -22 -18 0
-14 -21 -10 -22 -19 0
-15 -21 -7 -23 -16 0
-15 -21 -8 -23 -17 0
-15 -21 -9 -23 -18 0
-15 -21 -10 -23 -19 0
-16 -21 -8 -24 -17 0
-16 -21 -9 -24 -18 0
-16 -21 -10 -24 -19 0
-17 -21 -9 -25 -18 0
-17 -21 -10 -25 -19 0
-18 -21 -10 -26 -19 0
-15 -22 -7 -23 -16 0
-15 -22 -8 -23 -17 0
-15 -22 -9 -23 -18 0
-15 -22 -10 -23 -19 0
-16 -22 -8 -24 -17 0
-16 -22 -9 -24 -18 0
-16 -22 -10 -24 -19 0
-17 -22 -9 -25 -18 0
-17 -22 -10 -25 -19 0
-18 -22 -10 -26 -19 0
-16 -23 -8 -24 -17 0
-16 -23 -9 -24 -18 0
-16 -23 -10 -24 -19 0
-17 -23 -9 -25 -18 0
-17 -23 -10 -25 -19 0
-18 -23 -10 -26 -19 0
-17 -24 -9 -25 -18 0
-17 -24 -10 -25 -19 0
-18 -24 -10 -26 -19 0
-18 -25 -10 -26 -19 0
-14 -28 -6 -29 -15 0
-14 -28 -7 -29 -16 0
-14 -28 -8 -29 -17 0
-14 -28 -9 -29 -18 0
-14 -28 -10 -29 -19 0
-15 -28 -7 -30 -16 0
-15 -28 -8 -30 -17 0
-15 -28 -9 -30 -18 0
-15 -28 -10 -30 -19 0
-16 -28 -8 -31 -17 0
-16 -28 -9 -31 -18 0
-16 -28 -10 -31 -19 0
-17 -28 -9 -32 -18 0
-17 -28 -10 -32 -19 0
-18 -28 -10 -33 -19 0
-15 -29 -7 -30 -16 0
-15 -29 -8 -30 -17 0
-15 -29 -9 -30 -18 0
-15 -29 -10 -30 -19 0
-16 -29 -8 -31 -17 0
-16 -29 -9 -31 -18 0
-16 -29 -10 -31 -19 0
-17 -29 -9 -32 -18 0
-17 -29 -10 -32 -19 0
-18 -29 -10 -33 -19 0
-16 -30 -8 -31 -17 0
-16 -30 -9 -31 -18 0
-16 -30 -10 -31 -19 0
-17 -30 -9 -32 -18 0
-17 -30 -10 -32 -19 0
-18 -30 -10 -33 -19 0
-17 -31 -9 -32 -18 0
-17 -31 -10 -32 -19 0
-18 -31 -10 -33 -19 0
-18 -32 -10 -33 -19 0
-15 -35 -7 -36 -16 0
-15 -35 -8 -36 -17 0
-15 -35 -9 -36 -18 0
-15 -35 -10 -36 -19 0
-16 -35 -8 -37 -17 0
-16 -35 -9 -37 -18 0
-16 -35 -10 -37 -19 0
-17 -35 -9 -38 -18 0
-17 -35 -10 -38 -19 0
-18 -35 -10 -39 -19 0
-16 -36 -8 -37 -17 0
-16 -36 -9 -37 -18 0
-16 -36 -10 -37 -19 0
-17 -36 -9 -38 -18 0
-17 -36 -10 -38 -19 0
-18 -36 -10 -39 -19 0
-17 -37 -9 -38 -18 0
-17 -37 -10 -38 -19 0
-18 -37 -10 -39 -19 0
-18 -38 -10 -39 -19 0
-16 -41 -8 -42 -17 0
-16 -41 -9 -42 -18 0
-16 -41 -10 -42 -19 0
-17 -41 -9 -43 -18 0
-17 -41 -10 -43 -19 0
-18 -41 -10 -44 -19 0
-17 -42 -9 -43 -18 0
-17 -42 -10 -43 -19 0
-18 -42 -10 -44 -19 0
-18 -43 -10 -44 -19 0
-17 -46 -9 -47 -18 0
-17 -46 -10 -47 -19 0
-18 -46 -10 -48 -19 0
-18 -47 -10 -48 -19 0
-18 -50 -10 -51 -19 0
-22 -28 -6 -29 -23 0
-22 -28 -7 -29 -24 0
-22 -28 -8 -29 -25 0
-22 -28 -9 -29 -26 0
-22 -28 -10 -29 -27 0
-23 -28 -7 -30 -24 0
-23 -28 -8 -30 -25 0
-23 -28 -9 -30 -26 0
-23 -28 -10 -30 -27 0
-24 -28 -8 -31 -25 0
-24 -28 -9 -31 -26 0
-24 -28 -10 -31 -27 0
-25 -28 -9 -32 -26 0
-25 -28 -10 -32 -27 0
-26 -28 -10 -33 -27 0
-23 -29 -7 -30 -24 0
-23 -29 -8 -30 -25 0
-23 -29 -9 -30 -26 0
-23 -29 -10 -30 -27 0
-24 -29 -8 -31 -25 0
-24 -29 -9 -31 -26 0
-24 -29 -10 -31 -27 0
-25 -29 -9 -32 -26 0
-25 -29 -10 -32 -27 0
-26 -29 -10 -33 -27 0
-24 -30 -8 -31 -25 0
-24 -30 -9 -31 -26 0
-24 -30 -10 -31 -27 0
-25 -30 -9 -32 -26 0
-25 -30 -10 -32 -27 0
-26 -30 -10 -33 -27 0
-25 -31 -9 -32 -26 0
-25 -31 -10 -32 -27 0
-26 -31 -10 -33 -27 0
-26 -32 -10 -33 -27 0
-23 -35 -7 -36 -24 0
-23 -35 -8 -36 -25 0
-23 -35 -9 -36 -26 0
-23 -35 -10 -36 -27 0
-24 -35 -8 -37 -25 0
-24 -35 -9 -37 -26 0
-24 -35 -10 -37 -27 0
-25 -35 -9 -38 -26 0
-25 -35 -10 -38 -27 0
-26 -35 -10 -39 -27 0
-24 -36 -8 -37 -25 0
-24 -36 -9 -37 -26 0
-24 -36 -10 -37 -27 0
-25 -36 -9 -38 -26 0
-25 -36 -10 -38 -27 0
-26 -36 -10 -39 -27 0
-25 -37 -9 -38 -26 0
-25 -37 -10 -38 -27 0
-26 -37 -10 -39 -27 0
-26 -38 -10 -39 -27 0
-24 -41 -8 -42 -25 0
-24 -41 -9 -42 -26 0
-24 -41 -10 -42 -27 0
-25 -41 -9 -43 -26 0
-25 -41 -10 -43 -27 0
-26 -41 -10 -44 -27 0
-25 -42 -9 -43 -26 0
-25 -42 -10 -43 -27 0
-26 -42 -10 -44 -27 0
-26 -43 -10 -44 -27 0
-25 -46 -9 -47 -26 0
-25 -46 -10 -47 -27 0
-26 -46 -10 -48 -27 0
-26 -47 -10 -48 -27 0
-26 -50 -10 -51 -27 0
-30 -35 -7 -36 -31 0
-30 -35 -8 -36 -32 0
-30 -35 -9 -36 -33 0
-30 -35 -10 -36 -34 0
-31 -35 -8 -37 -32 0
-31 -35 -9 -37 -33 0
-31 -35 -10 -37 -34 0
-32 -35 -9 -38 -33 0
-32 -35 -10 -38 -34 0
-33 -35 -10 -39 -34 0
-31 -36 -8 -37 -32 0
-31 -36 -9 -37 -33 0
-31 -36 -10 -37 -34 0
-32 -36 -9 -38 -33 0
-32 -36 -10 -38 -34 0
-33 -36 -10 -39 -34 0
-32 -37 -9 -38 -33 0
-32 -37 -10 -38 -34 0
-33 -37 -10 -39 -34 0
-33 -38 -10 -39 -34 0
-31 -41 -8 -42 -32 0
-31 -41 -9 -42 -33 0
-31 -41 -10 -42 -34 0
-32 -41 -9 -43 -33 0
-32 -41 -10 -43 -34 0
-33 -41 -10 -44 -34 0
-32 -42 -9 -43 -33 0
-32 -42 -10 -43 -34 0
-33 -42 -10 -44 -34 0
-33 -43 -10 -44 -34 0
-32 -46 -9 -47 -33 0
-32 -46 -10 -47 -34 0
-33 -46 -10 -48 -34 0
-33 -47 -10 -48 -34 0
-33 -50 -10 -51 -34 0
-37 -41 -8 -42 -38 0
-37 -41 -9 -42 -39 0
-37 -41 -10 -42 -40 0
-38 -41 -9 -43 -39 0
-38 -41 -10 -43 -40 0
-39 -41 -10 -44 -40 0
-38 -42 -9 -43 -39 0
-38 -42 -10 -43 -40 0
-39 -42 -10 -44 -40 0
-39 -43 -10 -44 -40 0
-38 -46 -9 -47 -39 0
-38 -46 -10 -47 -40 0
-39 -46 -10 -48 -40 0
-39 -47 -10 -48 -40 0
-39 -50 -10 -51 -40 0
-43 -46 -9 -47 -44 0
-43 -46 -10 -47 -45 0
-44 -46 -10 -48 -45 0
-44 -47 -10 -48 -45 0
-44 -50 -10 -51 -45 0
-48 -50 -10 -51 -49 0
-22 -28 -15 -29 -23 0
-22 -28 -16 -29 -24 0
-22 -28 -17 -29 -25 0
-22 -28 -18 -29 -26 0
-22 -28 -19 -29 -27 0
-23 -28 -16 -30 -24 0
-23 -28 -17 -30 -25 0
-23 -28 -18 -30 -26 0
-23 -28 -19 -30 -27 0
-24 -28 -17 -31 -25 0
-24 -28 -18 -31 -26 0
-24 -28 -19 -31 -27 0
-25 -28 -18 -32 -26 0
-25 -28 -19 -32 -27 0
-26 -28 -19 -33 -27 0
-23 -29 -16 -30 -24 0
-23 -29 -17 -30 -25 0
-23 -29 -18 -30 -26 0
-23 -29 -19 -30 -27 0
-24 -29 -17 -31 -25 0
-24 -29 -18 -31 -26 0
-24 -29 -19 -31 -27 0
-25 -29 -18 -32 -26 0
-25 -29 -19 -32 -27 0
-26 -29 -19 -33 -27 0
-24 -30 -17 -31 -25 0
-24 -30 -18 -31 -26 0
-24 -30 -19 -31 -27 0
-25 -30 -18 -32 -26 0
-25 -30 -19 -32 -27 0
-26 -30 -19 -33 -27 0
-25 -31 -18 -32 -26 0
-25 -31 -19 -32 -27 0
-26 -31 -19 -33 -27 0
-26 -32 -19 -33 -27 0
-23 -35 -16 -36 -24 0
-23 -35 -17 -36 -25 0
-23 -35 -18 -36 -26 0
-23 -35 -19 -36 -27 0
-24 -35 -17 -37 -25 0
-24 -35 -18 -37 -26 0
-24 -35 -19 -37 -27 0
-25 -35 -18 -38 -26 0
-25 -35 -19 -38 -27 0
-26 -35 -19 -39 -27 0
-24 -36 -17 -37 -25 0
-24 -36 -18 -37 -26 0
-24 -36 -19 -37 -27 0
-25 -36 -18 -38 -26 0
-25 -36 -19 -38 -27 0
-26 -36 -19 -39 -27 0
-25 -37 -18 -38 -26 0
-25 -37 -19 -38 -27 0
-26 -37 -19 -39 -27 0
-26 -38 -19 -39 -27 0
-24 -41 -17 -42 -25 0
-24 -41 -18 -42 -26 0
-24 -41 -19 -42 -27 0
-25 -41 -18 -43 -26 0
-25 -41 -19 -43 -27 0
-26 -41 -19 -44 -27 0
-25 -42 -18 -43 -26 0
-25 -42 -19 -43 -27 0
-26 -42 -19 -44 -27 0
-26 -43 -19 -44 -27 0
-25 -46 -18 -47 -26 0
-25 -46 -19 -47 -27 0
-26 -46 -19 -48 -27 0
-26 -47 -19 -48 -27 0
-26 -50 -19 -51 -27 0
-30 -35 -16 -36 -31 0
-30 -35 -17 -36 -32 0
-30 -35 -18 -36 -33 0
-30 -35 -19 -36 -34 0
-31 -35 -17 -37 -32 0
-31 -35 -18 -37 -33 0
-31 -35 -19 -37 -34 0
-32 -35 -18 -38 -33 0
-32 -35 -19 -38 -34 0
-33 -35 -19 -39 -34 0
-31 -36 -17 -37 -32 0
-31 -36 -18 -37 -33 0
-31 -36 -19 -37 -34 0
-32 -36 -18 -38 -33 0
-32 -36 -19 -38 -34 0
-33 -36 -19 -39 -34 0
-32 -37 -18 -38 -33 0
-32 -37 -19 -38 -34 0
-33 -37 -19 -39 -34 0
-33 -38 -19 -39 -34 0
-31 -41 -17 -42 -32 0
-31 -41 -18 -42 -33 0
-31 -41 -19 -42 -34 0
-32 -41 -18 -43 -33 0
-32 -41 -19 -43 -34 0
-33 -41 -19 -44 -34 0
-32 -42 -18 -43 -33 0
-32 -42 -19 -43 -34 0
-33 -42 -19 -44 -34 0
-33 -43 -19 -44 -34 0
-32 -46 -18 -47 -33 0
-32 -46 -19 -47 -34 0
-33 -46 -19 -48 -34 0
-33 -47 -19 -48 -34 0
-33 -50 -19 -51 -34 0
-37 -41 -17 -42 -38 0
-37 -41 -18 -42 -39 0
-37 -41 -19 -42 -40 0
-38 -41 -18 -43 -39 0
-38 -41 -19 -43 -40 0
-39 -41 -19 -44 -40 0
-38 -42 -18 -43 -39 0
-38 -42 -19 -43 -40 0
-39 -42 -19 -44 -40 0
-39 -43 -19 -44 -40 0
-38 -46 -18 -47 -39 0
-38 -46 -19 -47 -40 0
-39 -46 -19 -48 -40 0
-39 -47 -19 -48 -40 0
-39 -50 -19 -51 -40 0
-43 -46 -18 -47 -44 0
-43 -46 -19 -47 -45 0
-44 -46 -19 -48 -45 0
-44 -47 -19 -48 -45 0
-44 -50 -19 -51 -45 0
-48 -50 -19 -51 -49 0
-30 -35 -24 -36 -31 0
-30 -35 -25 -36 -32 0
-30 -35 -26 -36 -33 0
-30 -35 -27 -36 -34 0
-31 -35 -25 -37 -32 0
-31 -35 -26 -37 -33 0
-31 -35 -27 -37 -34 0
-32 -35 -26 -38 -33 0
-32 -35 -27 -38 -34 0
-33 -35 -27 -39 -34 0
-31 -36 -25 -37 -32 0
-31 -36 -26 -37 -33 0
-31 -36 -27 -37 -34 0
-32 -36 -26 -38 -33 0
-32 -36 -27 -38 -34 0
-33 -36 -27 -39 -34 0
-32 -37 -26 -38 -33 0
-32 -37 -27 -38 -34 0
-33 -37 -27 -39 -34 0
-33 -38 -27 -39 -34 0
-31 -41 -25 -42 -32 0
-31 -41 -26 -42 -33 0
-31 -41 -27 -42 -34 0
-32 -41 -26 -43 -33 0
-32 -41 -27 -43 -34 0
-33 -41 -27 -44 -34 0
-32 -42 -26 -43 -33 0
-32 -42 -27 -43 -34 0
-33 -42 -27 -44 -34 0
-33 -43 -27 -44 -34 0
-32 -46 -26 -47 -33 0
-32 -46 -27 -47 -34 0
-33 -46 -27 -48 -34 0
-33 -47 -27 -48 -34 0
-33 -50 -27 -51 -34 0
-37 -41 -25 -42 -38 0
-37 -41 -26 -42 -39 0
-37 -41 -27 -42 -40 0
-38 -41 -26 -43 -39 0
-38 -41 -27 -43 -40 0
-39 -41 -27 -44 -40 0
-38 -42 -26 -43 -39 0
-38 -42 -27 -43 -40 0
-39 -42 -27 -44 -40 0
-39 -43 -27 -44 -40 0
-38 -46 -26 -47 -39 0
-38 -46 -27 -47 -40 0
-39 -46 -27 -48 -40 0
-39 -47 -27 -48 -40 0
-39 -50 -27 -51 -40 0
-43 -46 -26 -47 -44 0
-43 -46 -27 -47 -45 0
-44 -46 -27 -48 -45 0
-44 -47 -27 -48 -45 0
-44 -50 -27 -51 -45 0
-48 -50 -27 -51 -49 0
-37 -41 -32 -42 -38 0
-37 -41 -33 -42 -39 0
-37 -41 -34 -42 -40 0
-38 -41 -33 -43 -39 0
-38 -41 -34 -43 -40 0
-39 -41 -34 -44 -40 0
-38 -42 -33 -43 -39 0
-38 -42 -34 -43 -40 0
-39 -42 -34 -44 -40 0
-39 -43 -34 -44 -40 0
-38 -46 -33 -47 -39 0
-38 -46 -34 -47 -40 0
-39 -46 -34 -48 -40 0
-39 -47 -34 -48 -40 0
-39 -50 -34 -51 -40 0
-43 -46 -33 -47 -44 0
-43 -46 -34 -47 -45 0
-44 -46 -34 -48 -45 0
-44 -47 -34 -48 -45 0
-44 -50 -34 -51 -45 0
-48 -50 -34 -51 -49 0
-43 -46 -39 -47 -44 0
-43 -46 -40 -47 -45 0
-44 -46 -40 -48 -45 0
-44 -47 -40 -48 -45 0
-44 -50 -40 -51 -45 0
-48 -50 -40 -51 -49 0
-48 -50 -45 -51 -49 0
-11 -3 -35 -4 -12 0
-11 -3 -36 -4 -12 0
-11 -3 -37 -4 -12 0
-11 -3 -38 -4 -12 0
-11 -3 -39 -4 -12 0
-11 -3 -40 -4 -12 0
-11 -3 -41 -5 -12 0
-11 -3 -42 -5 -12 0
-11 -3 -43 -5 -12 0
-11 -3 -44 -5 -12 0
-11 -3 -45 -5 -12 0
-11 -3 -46 -6 -12 0
-11 -3 -47 -6 -12 0
-11 -3 -48 -6 -12 0
-11 -3 -49 -6 -12 0
-11 -3 -50 -7 -12 0
-11 -3 -51 -7 -12 0
-11 -3 -52 -7 -12 0
-11 -3 -53 -8 -12 0
-11 -3 -54 -8 -12 0
-11 -3 -55 -9 -12 0
-11 -4 -41 -5 -13 0
-11 -4 -42 -5 -13 0
-11 -4 -43 -5 -13 0
-11 -4 -44 -5 -13 0
-11 -4 -45 -5 -13 0
-11 -4 -46 -6 -13 0
-11 -4 -47 -6 -13 0
-11 -4 -48 -6 -13 0
-11 -4 -49 -6 -13 0
-11 -4 -50 -7 -13 0
-11 -4 -51 -7 -13 0
-11 -4 -52 -7 -13 0
-11 -4 -53 -8 -13 0
-11 -4 -54 -8 -13 0
-11 -4 -55 -9 -13 0
-11 -5 -46 -6 -14 0
-11 -5 -47 -6 -14 0
-11 -5 -48 -6 -14 0
-11 -5 -49 -6 -14 0
-11 -5 -50 -7 -14 0
-11 -5 -51 -7 -14 0
-11 -5 -52 -7 -14 0
-11 -5 -53 -8 -14 0
-11 -5 -54 -8 -14 0
-11 -5 -55 -9 -14 0
-11 -6 -50 -7 -15 0
-11 -6 -51 -7 -15 0
-11 -6 -52 -7 -15 0
-11 -6 -53 -8 -15 0
-11 -6 -54 -8 -15 0
-11 -6 -55 -9 -15 0
-11 -7 -53 -8 -16 0
-11 -7 -54 -8 -16 0
-11 -7 -55 -9 -16 0
-11 -8 -55 -9 -17 0
-12 -4 -41 -5 -13 0
-12 -4 -42 -5 -13 0
-12 -4 -43 -5 -13 0
-12 -4 -44 -5 -13 0
-12 -4 -45 -5 -13 0
-12 -4 -46 -6 -13 0
-12 -4 -47 -6 -13 0
-12 -4 -48 -6 -13 0
-12 -4 -49 -6 -13 0
-12 -4 -50 -7 -13 0
-12 -4 -51 -7 -13 0
-12 -4 -52 -7 -13 0
-12 -4 -53 -8 -13 0
-12 -4 -54 -8 -13 0
-12 -4 -55 -9 -13 0
-12 -5 -46 -6 -14 0
-12 -5 -47 -6 -14 0
-12 -5 -48 -6 -14 0
-12 -5 -49 -6 -14 0
-12 -5 -50 -7 -14 0
-12 -5 -51 -7 -14 0
-12 -5 -52 -7 -14 0
-12 -5 -53 -8 -14 0
-12 -5 -54 -8 -14 0
-12 -5 -55 -9 -14 0
-12 -6 -50 -7 -15 0
-12 -6 -51 -7 -15 0
-12 -6 -52 -7 -15 0
-12 -6 -53 -8 -15 0
-12 -6 -54 -8 -15 0
-12 -6 -55 -9 -15 0
-12 -7 -53 -8 -16 0
-12 -7 -54 -8 -16 0
-12 -7 -55 -9 -16 0
-12 -8 -55 -9 -17 0
-13 -5 -46 -6 -14 0
-13 -5 -47 -6 -14 0
-13 -5 -48 -6 -14 0
-13 -5 -49 -6 -14 0
-13 -5 -50 -7 -14 0
-13 -5 -51 -7 -14 0
-13 -5 -52 -7 -14 0
-13 -5 -53 -8 -14 0
-13 -5 -54 -8 -14 0
-13 -5 -55 -9 -14 0
-13 -6 -50 -7 -15 0
-13 -6 -51 -7 -15 0
-13 -6 -52 -7 -15 0
-13 -6 -53 -8 -15 0
-13 -6 -54 -8 -15 0
-13 -6 -55 -9 -15 0
-13 -7 -53 -8 -16 0
-13 -7 -54 -8 -16 0
-13 -7 -55 -9 -16 0
-13 -8 -55 -9 -17 0
-14 -6 -50 -7 -15 0
-14 -6 -51 -7 -15 0
-14 -6 -52 -7 -15 0
-14 -6 -53 -8 -15 0
-14 -6 -54 -8 -15 0
-14 -6 -55 -9 -15 0
-14 -7 -53 -8 -16 0
-14 -7 -54 -8 -16 0
-14 -7 -55 -9 -16 0
-14 -8 -55 -9 -17 0
-15 -7 -53 -8 -16 0
-15 -7 -54 -8 -16 0
-15 -7 -55 -9 -16 0
-15 -8 -55 -9 -17 0
-16 -8 -55 -9 -17 0
-20 -4 -41 -5 -21 0
-20 -4 -42 -5 -21 0
-20 -4 -43 -5 -21 0
-20 -4 -44 -5 -21 0
-20 -4 -45 -5 -21 0
-20 -4 -46 -6 -21 0
-20 -4 -47 -6 -21 0
-20 -4 -48 -6 -21 0
-20 -4 -49 -6 -21 0
-20 -4 -50 -7 -21 0
-20 -4 -51 -7 -21 0
-20 -4 -52 -7 -21 0
-20 -4 -53 -8 -21 0
-20 -4 -54 -8 -21 0
-20 -4 -55 -9 -21 0
-20 -5 -46 -6 -22 0
-20 -5 -47 -6 -22 0
-20 -5 -48 -6 -22 0
-20 -5 -49 -6 -22 0
-20 -5 -50 -7 -22 0
-20 -5 -51 -7 -22 0
-20 -5 -52 -7 -22 0
-20 -5 -53 -8 -22 0
-20 -5 -54 -8 -22 0
-20 -5 -55 -9 -22 0
-20 -6 -50 -7 -23 0
-20 -6 -51 -7 -23 0
-20 -6 -52 -7 -23 0
-20 -6 -53 -8 -23 0
-20 -6 -54 -8 -23 0
-20 -6 -55 -9 -23 0
-20 -7 -53 -8 -24 0
-20 -7 -54 -8 -24 0
-20 -7 -55 -9 -24 0
-20 -8 -55 -9 -25 0
-21 -5 -46 -6 -22 0
-21 -5 -47 -6 -22 0
-21 -5 -48 -6 -22 0
-21 -5 -49 -6 -22 0
-21 -5 -50 -7 -22 0
-21 -5 -51 -7 -22 0
-21 -5 -52 -7 -22 0
-21 -5 -53 -8 -22 0
-21 -5 -54 -8 -22 0
-21 -5 -55 -9 -22 0
-21 -6 -50 -7 -23 0
-21 -6 -51 -7 -23 0
-21 -6 -52 -7 -23 0
-21 -6 -53 -8 -23 0
-21 -6 -54 -8 -23 0
-21 -6 -55 -9 -23 0
-21 -7 -53 -8 -24 0
-21 -7 -54 -8 -24 0
-21 -7 -55 -9 -24 0
-21 -8 -55 -9 -25 0
-22 -6 -50 -7 -23 0
-22 -6 -51 -7 -23 0
-22 -6 -52 -7 -23 0
-22 -6 -53 -8 -23 0
-22 -6 -54 -8 -23 0
-22 -6 -55 -9 -23 0
-22 -7 -53 -8 -24 0
-22 -7 -54 -8 -24 0
-22 -7 -55 -9 -24 0
-22 -8 -55 -9 -25 0
-23 -7 -53 -8 -24 0
-23 -7 -54 -8 -24 0
-23 -7 -55 -9 -24 0
-23 -8 -55 -9 -25 0
-24 -8 -55 -9 -25 0
-28 -5 -46 -6 -29 0
-28 -5 -47 -6 -29 0
-28 -5 -48 -6 -29 0
-28 -5 -49 -6 -29 0
-28 -5 -50 -7 -29 0
-28 -5 -51 -7 -29 0
-28 -5 -52 -7 -29 0
-28 -5 -53 -8 -29 0
-28 -5 -54 -8 -29 0
-28 -5 -55 -9 -29 0
-28 -6 -50 -7 -30 0
-28 -6 -51 -7 -30 0
-28 -6 -52 -7 -30 0
-28 -6 -53 -8 -30 0
-28 -6 -54 -8 -30 0
-28 -6 -55 -9 -30 0
-28 -7 -53 -8 -31 0
-28 -7 -54 -8 -31 0
-28 -7 -55 -9 -31 0
-28 -8 -55 -9 -32 0
-29 -6 -50 -7 -30 0
-29 -6 -51 -7 -30 0
-29 -6 -52 -7 -30 0
-29 -6 -53 -8 -30 0
-29 -6 -54 -8 -30 0
-29 -6 -55 -9 -30 0
-29 -7 -53 -8 -31 0
-29 -7 -54 -8 -31 0
-29 -7 -55 -9 -31 0
-29 -8 -55 -9 -32 0
-30 -7 -53 -8 -31 0
-30 -7 -54 -8 -31 0
-30 -7 -55 -9 -31 0
-30 -8 -55 -9 -32 0
-31 -8 -55 -9 -32 0
-35 -6 -50 -7 -36 0
-35 -6 -51 -7 -36 0
-35 -6 -52 -7 -36 0
-35 -6 -53 -8 -36 0
-35 -6 -54 -8 -36 0
-35 -6 -55 -9 -36 0
-35 -7 -53 -8 -37 0
-35 -7 -54 -8 -37 0
-35 -7 -55 -9 -37 0
-35 -8 -55 -9 -38 0
-36 -7 -53 -8 -37 0
-36 -7 -54 -8 -37 0
-36 -7 -55 -9 -37 0
-36 -8 -55 -9 -38 0
-37 -8 -55 -9 -38 0
-41 -7 -53 -8 -42 0
-41 -7 -54 -8 -42 0
-41 -7 -55 -9 -42 0
-41 -8 -55 -9 -43 0
-42 -8 -55 -9 -43 0
-46 -8 -55 -9 -47 0
-20 -13 -41 -14 -21 0
-20 -13 -42 -14 -21 0
-20 -13 -43 -14 -21 0
-20 -13 -44 -14 -21 0
-20 -13 -45 -14 -21 0
-20 -13 -46 -15 -21 0
-20 -13 -47 -15 -21 0
-20 -13 -48 -15 -21 0
-20 -13 -49 -15 -21 0
-20 -13 -50 -16 -21 0
-20 -13 -51 -16 -21 0
-20 -13 -52 -16 -21 0
-20 -13 -53 -17 -21 0
-20 -13 -54 -17 -21 0
-20 -13 -55 -18 -21 0
-20 -14 -46 -15 -22 0
-20 -14 -47 -15 -22 0
-20 -14 -48 -15 -22 0
-20 -14 -49 -15 -22 0
-20 -14 -50 -16 -22 0
-20 -14 -51 -16 -22 0
-20 -14 -52 -16 -22 0
-20 -14 -53 -17 -22 0
-20 -14 -54 -17 -22 0
-20 -14 -55 -18 -22 0
-20 -15 -50 -16 -23 0
-20 -15 -51 -16 -23 0
-20 -15 -52 -16 -23 0
-20 -15 -53 -17 -23 0
-20 -15 -54 -17 -23 0
-20 -15 -55 -18 -23 0
-20 -16 -53 -17 -24 0
-20 -16 -54 -17 -24 0
-20 -16 -55 -18 -24 0
-20 -17 -55 -18 -25 0
-21 -14 -46 -15 -22 0
-21 -14 -47 -15 -22 0
-21 -14 -48 -15 -22 0
-21 -14 -49 -15 -22 0
-21 -14 -50 -16 -22 0
-21 -14 -51 -16 -22 0
-21 -14 -52 -16 -22 0
-21 -14 -53 -17 -22 0
-21 -14 -54 -17 -22 0
-21 -14 -55 -18 -22 0
-21 -15 -50 -16 -23 0
-21 -15 -51 -16 -23 0
-21 -15 -52 -16 -23 0
-21 -15 -53 -17 -23 0
-21 -15 -54 -17 -23 0
-21 -15 -55 -18 -23 0
-21 -16 -53 -17 -24 0
-21 -16 -54 -17 -24 0
-21 -16 -55 -18 -24 0
-21 -17 -55 -18 -25 0
-22 -15 -50 -16 -23 0
-22 -15 -51 -16 -23 0
-22 -15 -52 -16 -23 0
-22 -15 -53 -17 -23 0
-22 -15 -54 -17 -23 0
-22 -15 -55 -18 -23 0
-22 -16 -53 -17 -24 0
-22 -16 -54 -17 -24 0
-22 -16 -55 -18 -24 0
-22 -17 -55 -18 -25 0
-23 -16 -53 -17 -24 0
-23 -16 -54 -17 -24 0
-23 -16 -55 -18 -24 0
-23 -17 -55 -18 -25 0
-24 -17 -55 -18 -25 0
-28 -14 -46 -15 -29 0
-28 -14 -47 -15 -29 0
-28 -14 -48 -15 -29 0
-28 -14 -49 -15 -29 0
-28 -14 -50 -16 -29 0
-28 -14 -51 -16 -29 0
-28 -14 -52 -16 -29 0
-28 -14 -53 -17 -29 0
-28 -14 -54 -17 -29 0
-28 -14 -55 -18 -29 0
-28 -15 -50 -16 -30 0
-28 -15 -51 -16 -30 0
-28 -15 -52 -16 -30 0
-28 -15 -53 -17 -30 0
-28 -15 -54 -17 -30 0
-28 -15 -55 -18 -30 0
-28 -16 -53 -17 -31 0
-28 -16 -54 -17 -31 0
-28 -16 -55 -18 -31 0
-28 -17 -55 -18 -32 0
-29 -15 -50 -16 -30 0
-29 -15 -51 -16 -30 0
-29 -15 -52 -16 -30 0
-29 -15 -53 -17 -30 0
-29 -15 -54 -17 -30 0
-29 -15 -55 -18 -30 0
-29 -16 -53 -17 -31 0
-29 -16 -54 -17 -31 0
-29 -16 -55 -18 -31 0
-29 -17 -55 -18 -32 0
-30 -16 -53 -17 -31 0
-30 -16 -54 -17 -31 0
-30 -16 -55 -18 -31 0
-30 -17 -55 -18 -32 0
-31 -17 -55 -18 -32 0
-35 -15 -50 -16 -36 0
-35 -15 -51 -16 -36 0
-35 -15 -52 -16 -36 0
-35 -15 -53 -17 -36 0
-35 -15 -54 -17 -36 0
-35 -15 -55 -18 -36 0
-35 -16 -53 -17 -37 0
-35 -16 -54 -17 -37 0
-35 -16 -55 -18 -37 0
-35 -17 -55 -18 -38 0
-36 -16 -53 -17 -37 0
-36 -16 -54 -17 -37 0
-36 -16 -55 -18 -37 0
-36 -17 -55 -18 -38 0
-37 -17 -55 -18 -38 0
-41 -16 -53 -17 -42 0
-41 -16 -54 -17 -42 0
-41 -16 -55 -18 -42 0
-41 -17 -55 -18 -43 0
-42 -17 -55 -18 -43 0
-46 -17 -55 -18 -47 0
-28 -22 -46 -23 -29 0
-28 -22 -47 -23 -29 0
-28 -22 -48 -23 -29 0
-28 -22 -49 -23 -29 0
-28 -22 -50 -24 -29 0
-28 -22 -51 -24 -29 0
-28 -22 -52 -24 -29 0
-28 -22 -53 -25 -29 0
-28 -22 -54 -25 -29 0
-28 -22 -55 -26 -29 0
-28 -23 -50 -24 -30 0
-28 -23 -51 -24 -30 0
-28 -23 -52 -24 -30 0
-28 -23 -53 -25 -30 0
-28 -23 -54 -25 -30 0
-28 -23 -55 -26 -30 0
-28 -24 -53 -25 -31 0
-28 -24 -54 -25 -31 0
-28 -24 -55 -26 -31 0
-28 -25 -55 -26 -32 0
-29 -23 -50 -24 -30 0
-29 -23 -51 -24 -30 0
-29 -23 -52 -24 -30 0
-29 -23 -53 -25 -30 0
-29 -23 -54 -25 -30 0
-29 -23 -55 -26 -30 0
-29 -24 -53 -25 -31 0
-29 -24 -54 -25 -31 0
-29 -24 -55 -26 -31 0
-29 -25 -55 -26 -32 0
-30 -24 -53 -25 -31 0
-30 -24 -54 -25 -31 0
-30 -24 -55 -26 -31 0
-30 -25 -55 -26 -32 0
-31 -25 -55 -26 -32 0
-35 -23 -50 -24 -36 0
-35 -23 -51 -24 -36 0
-35 -23 -52 -24 -36 0
-35 -23 -53 -25 -36 0
-35 -23 -54 -25 -36 0
-35 -23 -55 -26 -36 0
-35 -24 -53 -25 -37 0
-35 -24 -54 -25 -37 0
-35 -24 -55 -26 -37 0
-35 -25 -55 -26 -38 0
-36 -24 -53 -25 -37 0
-36 -24 -54 -25 -37 0
-36 -24 -55 -26 -37 0
-36 -25 -55 -26 -38 0
-37 -25 -55 -26 -38 0
-41 -24 -53 -25 -42 0
-41 -24 -54 -25 -42 0
-41 -24 -55 -26 -42 0
-41 -25 -55 -26 -43 0
-42 -25 -55 -26 -43 0
-46 -25 -55 -26 -47 0
-35 -30 -50 -31 -36 0
-35 -30 -51 -31 -36 0
-35 -30 -52 -31 -36 0
-35 -30 -53 -32 -36 0
-35 -30 -54 -32 -36 0
-35 -30 -55 -33 -36 0
-35 -31 -53 -32 -37 0
-35 -31 -54 -32 -37 0
-35 -31 -55 -33 -37 0
-35 -32 -55 -33 -38 0
-36 -31 -53 -32 -37 0
-36 -31 -54 -32 -37 0
-36 -31 -55 -33 -37 0
-36 -32 -55 -33 -38 0
-37 -32 -55 -33 -38 0
-41 -31 -53 -32 -42 0
-41 -31 -54 -32 -42 0
-41 -31 -55 -33 -42 0
-41 -32 -55 -33 -43 0
-42 -32 -55 -33 -43 0
-46 -32 -55 -33 -47 0
-41 -37 -53 -38 -42 0
-41 -37 -54 -38 -42 0
-41 -37 -55 -39 -42 0
-41 -38 -55 -39 -43 0
-42 -38 -55 -39 -43 0
-46 -38 -55 -39 -47 0
-46 -43 -55 -44 -47 0
-11 -3 -35 -2 -29 0
-11 -3 -36 -2 -30 0
-11 -3 -37 -2 -31 0
-11 -3 -38 -2 -32 0
-11 -3 -39 -2 -33 0
-11 -3 -40 -2 -34 0
-11 -3 -41 -2 -30 0
-11 -3 -42 -2 -31 0
-11 -3 -43 -2 -32 0
-11 -3 -44 -2 -33 0
-11 -3 -45 -2 -34 0
-11 -3 -46 -2 -31 0
-11 -3 -47 -2 -32 0
-11 -3 -48 -2 -33 0
-11 -3 -49 -2 -34 0
-11 -3 -50 -2 -32 0
-11 -3 -51 -2 -33 0
-11 -3 -52 -2 -34 0
-11 -3 -53 -2 -33 0
-11 -3 -54 -2 -34 0
-11 -3 -55 -2 -34 0
-11 -4 -41 -2 -36 0
-11 -4 -42 -2 -37 0
-11 -4 -43 -2 -38 0
-11 -4 -44 -2 -39 0
-11 -4 -45 -2 -40 0
-11 -4 -46 -2 -37 0
-11 -4 -47 -2 -38 0
-11 -4 -48 -2 -39 0
-11 -4 -49 -2 -40 0
-11 -4 -50 -2 -38 0
-11 -4 -51 -2 -39 0
-11 -4 -52 -2 -40 0
-11 -4 -53 -2 -39 0
-11 -4 -54 -2 -40 0
-11 -4 -55 -2 -40 0
-11 -5 -46 -2 -42 0
-11 -5 -47 -2 -43 0
-11 -5 -48 -2 -44 0
-11 -5 -49 -2 -45 0
-11 -5 -50 -2 -43 0
-11 -5 -51 -2 -44 0
-11 -5 -52 -2 -45 0
-11 -5 -53 -2 -44 0
-11 -5 -54 -2 -45 0
-11 -5 -55 -2 -45 0
-11 -6 -50 -2 -47 0
-11 -6 -51 -2 -48 0
-11 -6 -52 -2 -49 0
-11 -6 -53 -2 -48 0
-11 -6 -54 -2 -49 0
-11 -6 -55 -2 -49 0
-11 -7 -53 -2 -51 0
-11 -7 -54 -2 -52 0
-11 -7 -55 -2 -52 0
-11 -8 -55 -2 -54 0
-12 -4 -41 -3 -36 0
-12 -4 -42 -3 -37 0
-12 -4 -43 -3 -38 0
-12 -4 -44 -3 -39 0
-12 -4 -45 -3 -40 0
-12 -4 -46 -3 -37 0
-12 -4 -47 -3 -38 0
-12 -4 -48 -3 -39 0
-12 -4 -49 -3 -40 0
-12 -4 -50 -3 -38 0
-12 -4 -51 -3 -39 0
-12 -4 -52 -3 -40 0
-12 -4 -53 -3 -39 0
-12 -4 -54 -3 -40 0
-12 -4 -55 -3 -40 0
-12 -5 -46 -3 -42 0
-12 -5 -47 -3 -43 0
-12 -5 -48 -3 -44 0
-12 -5 -49 -3 -45 0
-12 -5 -50 -3 -43 0
-12 -5 -51 -3 -44 0
-12 -5 -52 -3 -45 0
-12 -5 -53 -3 -44 0
-12 -5 -54 -3 -45 0
-12 -5 -55 -3 -45 0
-12 -6 -50 -3 -47 0
-12 -6 -51 -3 -48 0
-12 -6 -52 -3 -49 0
-12 -6 -53 -3 -48 0
-12 -6 -54 -3 -49 0
-12 -6 -55 -3 -49 0
-12 -7 -53 -3 -51 0
-12 -7 -54 -3 -52 0
-12 -7 -55 -3 -52 0
-12 -8 -55 -3 -54 0
-13 -5 -46 -4 -42 0
-13 -5 -47 -4 -43 0
-13 -5 -48 -4 -44 0
-13 -5 -49 -4 -45 0
-13 -5 -50 -4 -43 0
-13 -5 -51 -4 -44 0
-13 -5 -52 -4 -45 0
-13 -5 -53 -4 -44 0
-13 -5 -54 -4 -45 0
-13 -5 -55 -4 -45 0
-13 -6 -50 -4 -47 0
-13 -6 -51 -4 -48 0
-13 -6 -52 -4 -49 0
-13 -6 -53 -4 -48 0
-13 -6 -54 -4 -49 0
-13 -6 -55 -4 -49 0
-13 -7 -53 -4 -51 0
-13 -7 -54 -4 -52 0
-13 -7 -55 -4 -52 0
-13 -8 -55 -4 -54 0
-14 -6 -50 -5 -47 0
-14 -6 -51 -5 -48 0
-14 -6 -52 -5 -49 0
-14 -6 -53 -5 -48 0
-14 -6 -54 -5 -49 0
-14 -6 -55 -5 -49 0
-14 -7 -53 -5 -51 0
-14 -7 -54 -5 -52 0
-14 -7 -55 -5 -52 0
-14 -8 -55 -5 -54 0
-15 -7 -53 -6 -51 0
-15 -7 -54 -6 -52 0
-15 -7 -55 -6 -52 0
-15 -8 -55 -6 -54 0
-16 -8 -55 -7 -54 0
-20 -4 -41 -3 -36 0
-20 -4 -42 -3 -37 0
-20 -4 -43 -3 -38 0
-20 -4 -44 -3 -39 0
-20 -4 -45 -3 -40 0
-20 -4 -46 -3 -37 0
-20 -4 -47 -3 -38 0
-20 -4 -48 -3 -39 0
-20 -4 -49 -3 -40 0
-20 -4 -50 -3 -38 0
-20 -4 -51 -3 -39 0
-20 -4 -52 -3 -40 0
-20 -4 -53 -3 -39 0
-20 -4 -54 -3 -40 0
-20 -4 -55 -3 -40 0
-20 -5 -46 -3 -42 0
-20 -5 -47 -3 -43 0
-20 -5 -48 -3 -44 0
-20 -5 -49 -3 -45 0
-20 -5 -50 -3 -43 0
-20 -5 -51 -3 -44 0
-20 -5 -52 -3 -45 0
-20 -5 -53 -3 -44 0
-20 -5 -54 -3 -45 0
-20 -5 -55 -3 -45 0
-20 -6 -50 -3 -47 0
-20 -6 -51 -3 -48 0
-20 -6 -52 -3 -49 0
-20 -6 -53 -3 -48 0
-20 -6 -54 -3 -49 0
-20 -6 -55 -3 -49 0
-20 -7 -53 -3 -51 0
-20 -7 -54 -3 -52 0
-20 -7 -55 -3 -52 0
-20 -8 -55 -3 -54 0
-21 -5 -46 -4 -42 0
-21 -5 -47 -4 -43 0
-21 -5 -48 -4 -44 0
-21 -5 -49 -4 -45 0
-21 -5 -50 -4 -43 0
-21 -5 -51 -4 -44 0
-21 -5 -52 -4 -45 0
-21 -5 -53 -4 -44 0
-21 -5 -54 -4 -45 0
-21 -5 -55 -4 -45 0
-21 -6 -50 -4 -47 0
-21 -6 -51 -4 -48 0
-21 -6 -52 -4 -49 0
-21 -6 -53 -4 -48 0
-21 -6 -54 -4 -49 0
-21 -6 -55 -4 -49 0
-21 -7 -53 -4 -51 0
-21 -7 -54 -4 -52 0
-21 -7 -55 -4 -52 0
-21 -8 -55 -4 -54 0
-22 -6 -50 -5 -47 0
-22 -6 -51 -5 -48 0
-22 -6 -52 -5 -49 0
-22 -6 -53 -5 -48 0
-22 -6 -54 -5 -49 0
-22 -6 -55 -5 -49 0
-22 -7 -53 -5 -51 0
-22 -7 -54 -5 -52 0
-22 -7 -55 -5 -52 0
-22 -8 -55 -5 -54 0
-23 -7 -53 -6 -51 0
-23 -7 -54 -6 -52 0
-23 -7 -55 -6 -52 0
-23 -8 -55 -6 -54 0
-24 -8 -55 -7 -54 0
-28 -5 -46 -4 -42 0
-28 -5 -47 -4 -43 0
-28 -5 -48 -4 -44 0
-28 -5 -49 -4 -45 0
-28 -5 -50 -4 -43 0
-28 -5 -51 -4 -44 0
-28 -5 -52 -4 -45 0
-28 -5 -53 -4 -44 0
-28 -5 -54 -4 -45 0
-28 -5 -55 -4 -45 0
-28 -6 -50 -4 -47 0
-28 -6 -51 -4 -48 0
-28 -6 -52 -4 -49 0
-28 -6 -53 -4 -48 0
-28 -6 -54 -4 -49 0
-28 -6 -55 -4 -49 0
-28 -7 -53 -4 -51 0
-28 -7 -54 -4 -52 0
-28 -7 -55 -4 -52 0
-28 -8 -55 -4 -54 0
-29 -6 -50 -5 -47 0
-29 -6 -51 -5 -48 0
-29 -6 -52 -5 -49 0
-29 -6 -53 -5 -48 0
-29 -6 -54 -5 -49 0
-29 -6 -55 -5 -49 0
-29 -7 -53 -5 -51 0
-29 -7 -54 -5 -52 0
-29 -7 -55 -5 -52 0
-29 -8 -55 -5 -54 0
-30 -7 -53 -6 -51 0
-30 -7 -54 -6 -52 0
-30 -7 -55 -6 -52 0
-30 -8 -55 -6 -54 0
-31 -8 -55 -7 -54 0
-35 -6 -50 -5 -47 0
-35 -6 -51 -5 -48 0
-35 -6 -52 -5 -49 0
-35 -6 -53 -5 -48 0
-35 -6 -54 -5 -49 0
-35 -6 -55 -5 -49 0
-35 -7 -53 -5 -51 0
-35 -7 -54 -5 -52 0
-35 -7 -55 -5 -52 0
-35 -8 -55 -5 -54 0
-36 -7 -53 -6 -51 0
-36 -7 -54 -6 -52 0
-36 -7 -55 -6 -52 0
-36 -8 -55 -6 -54 0
-37 -8 -55 -7 -54 0
-41 -7 -53 -6 -51 0
-41 -7 -54 -6 -52 0
-41 -7 -55 -6 -52 0
-41 -8 -55 -6 -54 0
-42 -8 -55 -7 -54 0
-46 -8 -55 -7 -54 0
-20 -13 -41 -12 -36 0
-20 -13 -42 -12 -37 0
-20 -13 -43 -12 -38 0
-20 -13 -44 -12 -39 0
-20 -13 -45 -12 -40 0
-20 -13 -46 -12 -37 0
-20 -13 -47 -12 -38 0
-20 -13 -48 -12 -39 0
-20 -13 -49 -12 -40 0
-20 -13 -50 -12 -38 0
-20 -13 -51 -12 -39 0
-20 -13 -52 -12 -40 0
-20 -13 -53 -12 -39 0
-20 -13 -54 -12 -40 0
-20 -13 -55 -12 -40 0
-20 -14 -46 -12 -42 0
-20 -14 -47 -12 -43 0
-20 -14 -48 -12 -44 0
-20 -14 -49 -12 -45 0
-20 -14 -50 -12 -43 0
-20 -14 -51 -12 -44 0
-20 -14 -52 -12 -45 0
-20 -14 -53 -12 -44 0
-20 -14 -54 -12 -45 0
-20 -14 -55 -12 -45 0
-20 -15 -50 -12 -47 0
-20 -15 -51 -12 -48 0
-20 -15 -52 -12 -49 0
-20 -15 -53 -12 -48 0
-20 -15 -54 -12 -49 0
-20 -15 -55 -12 -49 0
-20 -16 -53 -12 -51 0
-20 -16 -54 -12 -52 0
-20 -16 -55 -12 -52 0
-20 -17 -55 -12 -54 0
-21 -14 -46 -13 -42 0
-21 -14 -47 -13 -43 0
-21 -14 -48 -13 -44 0
-21 -14 -49 -13 -45 0
-21 -14 -50 -13 -43 0
-21 -14 -51 -13 -44 0
-21 -14 -52 -13 -45 0
-21 -14 -53 -13 -44 0
-21 -14 -54 -13 -45 0
-21 -14 -55 -13 -45 0
-21 -15 -50 -13 -47 0
-21 -15 -51 -13 -48 0
-21 -15 -52 -13 -49 0
-21 -15 -53 -13 -48 0
-21 -15 -54 -13 -49 0
-21 -15 -55 -13 -49 0
-21 -16 -53 -13 -51 0
-21 -16 -54 -13 -52 0
-21 -16 -55 -13 -52 0
-21 -17 -55 -13 -54 0
-22 -15 -50 -14 -47 0
-22 -15 -51 -14 -48 0
-22 -15 -52 -14 -49 0
-22 -15 -53 -14 -48 0
-22 -15 -54 -14 -49 0
-22 -15 -55 -14 -49 0
-22 -16 -53 -14 -51 0
-22 -16 -54 -14 -52 0
-22 -16 -55 -14 -52 0
-22 -17 -55 -14 -54 0
-23 -16 -53 -15 -51 0
-23 -16 -54 -15 -52 0
-23 -16 -55 -15 -52 0
-23 -17 -55 -15 -54 0
-24 -17 -55 -16 -54 0
-28 -14 -46 -13 -42 0
-28 -14 -47 -13 -43 0
-28 -14 -48 -13 -44 0
-28 -14 -49 -13 -45 0
-28 -14 -50 -13 -43 0
-28 -14 -51 -13 -44 0
-28 -14 -52 -13 -45 0
-28 -14 -53 -13 -44 0
-28 -14 -54 -13 -45 0
-28 -14 -55 -13 -45 0
-28 -15 -50 -13 -47 0
-28 -15 -51 -13 -48 0
-28 -15 -52 -13 -49 0
-28 -15 -53 -13 -48 0
-28 -15 -54 -13 -49 0
-28 -15 -55 -13 -49 0
-28 -16 -53 -13 -51 0
-28 -16 -54 -13 -52 0
-28 -16 -55 -13 -52 0
-28 -17 -55 -13 -54 0
-29 -15 -50 -14 -47 0
-29 -15 -51 -14 -48 0
-29 -15 -52 -14 -49 0
-29 -15 -53 -14 -48 0
-29 -15 -54 -14 -49 0
-29 -15 -55 -14 -49 0
-29 -16 -53 -14 -51 0
-29 -16 -54 -14 -52 0
-29 -16 -55 -14 -52 0
-29 -17 -55 -14 -54 0
-30 -16 -53 -15 -51 0
-30 -16 -54 -15 -52 0
-30 -16 -55 -15 -52 0
-30 -17 -55 -15 -54 0
-31 -17 -55 -16 -54 0
-35 -15 -50 -14 -47 0
-35 -15 -51 -14 -48 0
-35 -15 -52 -14 -49 0
-35 -15 -53 -14 -48 0
-35 -15 -54 -14 -49 0
-35 -15 -55 -14 -49 0
-35 -16 -53 -14 -51 0
-35 -16 -54 -14 -52 0
-35 -16 -55 -14 -52 0
-35 -17 -55 -14 -54 0
-36 -16 -53 -15 -51 0
-36 -16 -54 -15 -52 0
-36 -16 -55 -15 -52 0
-36 -17 -55 -15 -54 0
-37 -17 -55 -16 -54 0
-41 -16 -53 -15 -51 0
-41 -16 -54 -15 -52 0
-41 -16 -55 -15 -52 0
-41 -17 -55 -15 -54 0
-42 -17 -55 -16 -54 0
-46 -17 -55 -16 -54 0
-28 -22 -46 -21 -42 0
-28 -22 -47 -21 -43 0
-28 -22 -48 -21 -44 0
-28 -22 -49 -21 -45 0
-28 -22 -50 -21 -43 0
-28 -22 -51 -21 -44 0
-28 -22 -52 -21 -45 0
-28 -22 -53 -21 -44 0
-28 -22 -54 -21 -45 0
-28 -22 -55 -21 -45 0
-28 -23 -50 -21 -47 0
-28 -23 -51 -21 -48 0
-28 -23 -52 -21 -49 0
-28 -23 -53 -21 -48 0
-28 -23 -54 -21 -49 0
-28 -23 -55 -21 -49 0
-28 -24 -53 -21 -51 0
-28 -24 -54 -21 -52 0
-28 -24 -55 -21 -52 0
-28 -25 -55 -21 -54 0
-29 -23 -50 -22 -47 0
-29 -23 -51 -22 -48 0
-29 -23 -52 -22 -49 0
-29 -23 -53 -22 -48 0
-29 -23 -54 -22 -49 0
-29 -23 -55 -22 -49 0
-29 -24 -53 -22 -51 0
-29 -24 -54 -22 -52 0
-29 -24 -55 -22 -52 0
-29 -25 -55 -22 -54 0
-30 -24 -53 -23 -51 0
-30 -24 -54 -23 -52 0
-30 -24 -55 -23 -52 0
-30 -25 -55 -23 -54 0
-31 -25 -55 -24 -54 0
-35 -23 -50 -22 -47 0
-35 -23 -51 -22 -48 0
-35 -23 -52 -22 -49 0
-35 -23 -53 -22 -48 0
-35 -23 -54 -22 -49 0
-35 -23 -55 -22 -49 0
-35 -24 -53 -22 -51 0
-35 -24 -54 -22 -52 0
-35 -24 -55 -22 -52 0
-35 -25 -55 -22 -54 0
-36 -24 -53 -23 -51 0
-36 -24 -54 -23 -52 0
-36 -24 -55 -23 -52 0
-36 -25 -55 -23 -54 0
-37 -25 -55 -24 -54 0
-41 -24 -53 -23 -51 0
-41 -24 -54 -23 -52 0
-41 -24 -55 -23 -52 0
-41 -25 -55 -23 -54 0
-42 -25 -55 -24 -54 0
-46 -25 -55 -24 -54 0
-35 -30 -50 -29 -47 0
-35 -30 -51 -29 -48 0
-35 -30 -52 -29 -49 0
-35 -30 -53 -29 -48 0
-35 -30 -54 -29 -49 0
-35 -30 -55 -29 -49 0
-35 -31 -53 -29 -51 0
-35 -31 -54 -29 -52 0
-35 -31 -55 -29 -52 0
-35 -32 -55 -29 -54 0
-36 -31 -53 -30 -51 0
-36 -31 -54 -30 -52 0
-36 -31 -55 -30 -52 0
-36 -32 -55 -30 -54 0
-37 -32 -55 -31 -54 0
-41 -31 -53 -30 -51 0
-41 -31 -54 -30 -52 0
-41 -31 -55 -30 -52 0
-41 -32 -55 -30 -54 0
-42 -32 -55 -31 -54 0
-46 -32 -55 -31 -54 0
-41 -37 -53 -36 -51 0
-41 -37 -54 -36 -52 0
-41 -37 -55 -36 -52 0
-41 -38 -55 -36 -54 0
-42 -38 -55 -37 -54 0
-46 -38 -55 -37 -54 0
-46 -43 -55 -42 -54 0
-28 -1 -2 -22 -29 0
-28 -1 -2 -23 -30 0
-28 -1 -2 -24 -31 0
-28 -1 -2 -25 -32 0
-28 -1 -2 -26 -33 0
-28 -1 -2 -27 -34 0
-29 -1 -2 -23 -30 0
-29 -1 -2 -24 -31 0
-29 -1 -2 -25 -32 0
-29 -1 -2 -26 -33 0
-29 -1 -2 -27 -34 0
-30 -1 -2 -24 -31 0
-30 -1 -2 -25 -32 0
-30 -1 -2 -26 -33 0
-30 -1 -2 -27 -34 0
-31 -1 -2 -25 -32 0
-31 -1 -2 -26 -33 0
-31 -1 -2 -27 -34 0
-32 -1 -2 -26 -33 0
-32 -1 -2 -27 -34 0
-33 -1 -2 -27 -34 0
-35 -1 -2 -23 -36 0
-35 -1 -2 -24 -37 0
-35 -1 -2 -25 -38 0
-35 -1 -2 -26 -39 0
-35 -1 -2 -27 -40 0
-36 -1 -2 -24 -37 0
-36 -1 -2 -25 -38 0
-36 -1 -2 -26 -39 0
-36 -1 -2 -27 -40 0
-37 -1 -2 -25 -38 0
-37 -1 -2 -26 -39 0
-37 -1 -2 -27 -40 0
-38 -1 -2 -26 -39 0
-38 -1 -2 -27 -40 0
-39 -1 -2 -27 -40 0
-41 -1 -2 -24 -42 0
-41 -1 -2 -25 -43 0
-41 -1 -2 -26 -44 0
-41 -1 -2 -27 -45 0
-42 -1 -2 -25 -43 0
-42 -1 -2 -26 -44 0
-42 -1 -2 -27 -45 0
-43 -1 -2 -26 -44 0
-43 -1 -2 -27 -45 0
-44 -1 -2 -27 -45 0
-46 -1 -2 -25 -47 0
-46 -1 -2 -26 -48 0
-46 -1 -2 -27 -49 0
-47 -1 -2 -26 -48 0
-47 -1 -2 -27 -49 0
-48 -1 -2 -27 -49 0
-50 -1 -2 -26 -51 0
-50 -1 -2 -27 -52 0
-51 -1 -2 -27 -52 0
-53 -1 -2 -27 -54 0
-35 -1 -3 -30 -36 0
-35 -1 -3 -31 -37 0
-35 -1 -3 -32 -38 0
-35 -1 -3 -33 -39 0
-35 -1 -3 -34 -40 0
-36 -1 -3 -31 -37 0
-36 -1 -3 -32 -38 0
-36 -1 -3 -33 -39 0
-36 -1 -3 -34 -40 0
-37 -1 -3 -32 -38 0
-37 -1 -3 -33 -39 0
-37 -1 -3 -34 -40 0
-38 -1 -3 -33 -39 0
-38 -1 -3 -34 -40 0
-39 -1 -3 -34 -40 0
-41 -1 -3 -31 -42 0
-41 -1 -3 -32 -43 0
-41 -1 -3 -33 -44 0
-41 -1 -3 -34 -45 0
-42 -1 -3 -32 -43 0
-42 -1 -3 -33 -44 0
-42 -1 -3 -34 -45 0
-43 -1 -3 -33 -44 0
-43 -1 -3 -34 -45 0
-44 -1 -3 -34 -45 0
-46 -1 -3 -32 -47 0
-46 -1 -3 -33 -48 0
-46 -1 -3 -34 -49 0
-47 -1 -3 -33 -48 0
-47 -1 -3 -34 -49 0
-48 -1 -3 -34 -49 0
-50 -1 -3 -33 -51 0
-50 -1 -3 -34 -52 0
-51 -1 -3 -34 -52 0
-53 -1 -3 -34 -54 0
-41 -1 -4 -37 -42 0
-41 -1 -4 -38 -43 0
-41 -1 -4 -39 -44 0
-41 -1 -4 -40 -45 0
-42 -1 -4 -38 -43 0
-42 -1 -4 -39 -44 0
-42 -1 -4 -40 -45 0
-43 -1 -4 -39 -44 0
-43 -1 -4 -40 -45 0
-44 -1 -4 -40 -45 0
-46 -1 -4 -38 -47 0
-46 -1 -4 -39 -48 0
-46 -1 -4 -40 -49 0
-47 -1 -4 -39 -48 0
-47 -1 -4 -40 -49 0
-48 -1 -4 -40 -49 0
-50 -1 -4 -39 -51 0
-50 -1 -4 -40 -52 0
-51 -1 -4 -40 -52 0
-53 -1 -4 -40 -54 0
-46 -1 -5 -43 -47 0
-46 -1 -5 -44 -48 0
-46 -1 -5 -45 -49 0
-47 -1 -5 -44 -48 0
-47 -1 -5 -45 -49 0
-48 -1 -5 -45 -49 0
-50 -1 -5 -44 -51 0
-50 -1 -5 -45 -52 0
-51 -1 -5 -45 -52 0
-53 -1 -5 -45 -54 0
-50 -1 -6 -48 -51 0
-50 -1 -6 -49 -52 0
-51 -1 -6 -49 -52 0
-53 -1 -6 -49 -54 0
-53 -1 -7 -52 -54 0
-35 -2 -3 -30 -36 0
-35 -2 -3 -31 -37 0
-35 -2 -3 -32 -38 0
-35 -2 -3 -33 -39 0
-35 -2 -3 -34 -40 0
-36 -2 -3 -31 -37 0
-36 -2 -3 -32 -38 0
-36 -2 -3 -33 -39 0
-36 -2 -3 -34 -40 0
-37 -2 -3 -32 -38 0
-37 -2 -3 -33 -39 0
-37 -2 -3 -34 -40 0
-38 -2 -3 -33 -39 0
-38 -2 -3 -34 -40 0
-39 -2 -3 -34 -40 0
-41 -2 -3 -31 -42 0
-41 -2 -3 -32 -43 0
-41 -2 -3 -33 -44 0
-41 -2 -3 -34 -45 0
-42 -2 -3 -32 -43 0
-42 -2 -3 -33 -44 0
-42 -2 -3 -34 -45 0
-43 -2 -3 -33 -44 0
-43 -2 -3 -34 -45 0
-44 -2 -3 -34 -45 0
-46 -2 -3 -32 -47 0
-46 -2 -3 -33 -48 0
-46 -2 -3 -34 -49 0
-47 -2 -3 -33 -48 0
-47 -2 -3 -34 -49 0
-48 -2 -3 -34 -49 0
-50 -2 -3 -33 -51 0
-50 -2 -3 -34 -52 0
-51 -2 -3 -34 -52 0
-53 -2 -3 -34 -54 0
-41 -2 -4 -37 -42 0
-41 -2 -4 -38 -43 0
-41 -2 -4 -39 -44 0
-41 -2 -4 -40 -45 0
-42 -2 -4 -38 -43 0
-42 -2 -4 -39 -44 0
-42 -2 -4 -40 -45 0
-43 -2 -4 -39 -44 0
-43 -2 -4 -40 -45 0
-44 -2 -4 -40 -45 0
-46 -2 -4 -38 -47 0
-46 -2 -4 -39 -48 0
-46 -2 -4 -40 -49 0
-47 -2 -4 -39 -48 0
-47 -2 -4 -40 -49 0
-48 -2 -4 -40 -49 0
-50 -2 -4 -39 -51 0
-50 -2 -4 -40 -52 0
-51 -2 -4 -40 -52 0
-53 -2 -4 -40 -54 0
-46 -2 -5 -43 -47 0
-46 -2 -5 -44 -48 0
-46 -2 -5 -45 -49 0
-47 -2 -5 -44 -48 0
-47 -2 -5 -45 -49 0
-48 -2 -5 -45 -49 0
-50 -2 -5 -44 -51 0
-50 -2 -5 -45 -52 0
-51 -2 -5 -45 -52 0
-53 -2 -5 -45 -54 0
-50 -2 -6 -48 -51 0
-50 -2 -6 -49 -52 0
-51 -2 -6 -49 -52 0
-53 -2 -6 -49 -54 0
-53 -2 -7 -52 -54 0
-41 -3 -4 -37 -42 0
-41 -3 -4 -38 -43 0
-41 -3 -4 -39 -44 0
-41 -3 -4 -40 -45 0
-42 -3 -4 -38 -43 0
-42 -3 -4 -39 -44 0
-42 -3 -4 -40 -45 0
-43 -3 -4 -39 -44 0
-43 -3 -4 -40 -45 0
-44 -3 -4 -40 -45 0
-46 -3 -4 -38 -47 0
-46 -3 -4 -39 -48 0
-46 -3 -4 -40 -49 0
-47 -3 -4 -39 -48 0
-47 -3 -4 -40 -49 0
-48 -3 -4 -40 -49 0
-50 -3 -4 -39 -51 0
-50 -3 -4 -40 -52 0
-51 -3 -4 -40 -52 0
-53 -3 -4 -40 -54 0
-46 -3 -5 -43 -47 0
-46 -3 -5 -44 -48 0
-46 -3 -5 -45 -49 0
-47 -3 -5 -44 -48 0
-47 -3 -5 -45 -49 0
-48 -3 -5 -45 -49 0
-50 -3 -5 -44 -51 0
-50 -3 -5 -45 -52 0
-51 -3 -5 -45 -52 0
-53 -3 -5 -45 -54 0
-50 -3 -6 -48 -51 0
-50 -3 -6 -49 -52 0
-51 -3 -6 -49 -52 0
-53 -3 -6 -49 -54 0
-53 -3 -7 -52 -54 0
-46 -4 -5 -43 -47 0
-46 -4 -5 -44 -48 0
-46 -4 -5 -45 -49 0
-47 -4 -5 -44 -48 0
-47 -4 -5 -45 -49 0
-48 -4 -5 -45 -49 0
-50 -4 -5 -44 -51 0
-50 -4 -5 -45 -52 0
-51 -4 -5 -45 -52 0
-53 -4 -5 -45 -54 0
-50 -4 -6 -48 -51 0
-50 -4 -6 -49 -52 0
-51 -4 -6 -49 -52 0
-53 -4 -6 -49 -54 0
-53 -4 -7 -52 -54 0
-50 -5 -6 -48 -51 0
-50 -5 -6 -49 -52 0
-51 -5 -6 -49 -52 0
-53 -5 -6 -49 -54 0
-53 -5 -7 -52 -54 0
-53 -6 -7 -52 -54 0
-35 -11 -12 -30 -36 0
-35 -11 -12 -31 -37 0
-35 -11 -12 -32 -38 0
-35 -11 -12 -33 -39 0
-35 -11 -12 -34 -40 0
-36 -11 -12 -31 -37 0
-36 -11 -12 -32 -38 0
-36 -11 -12 -33 -39 0
-36 -11 -12 -34 -40 0
-37 -11 -12 -32 -38 0
-37 -11 -12 -33 -39 0
-37 -11 -12 -34 -40 0
-38 -11 -12 -33 -39 0
-38 -11 -12 -34 -40 0
-39 -11 -12 -34 -40 0
-41 -11 -12 -31 -42 0
-41 -11 -12 -32 -43 0
-41 -11 -12 -33 -44 0
-41 -11 -12 -34 -45 0
-42 -11 -12 -32 -43 0
-42 -11 -12 -33 -44 0
-42 -11 -12 -34 -45 0
-43 -11 -12 -33 -44 0
-43 -11 -12 -34 -45 0
-44 -11 -12 -34 -45 0
-46 -11 -12 -32 -47 0
-46 -11 -12 -33 -48 0
-46 -11 -12 -34 -49 0
-47 -11 -12 -33 -48 0
-47 -11 -12 -34 -49 0
-48 -11 -12 -34 -49 0
-50 -11 -12 -33 -51 0
-50 -11 -12 -34 -52 0
-51 -11 -12 -34 -52 0
-53 -11 -12 -34 -54 0
-41 -11 -13 -37 -42 0
-41 -11 -13 -38 -43 0
-41 -11 -13 -39 -44 0
-41 -11 -13 -40 -45 0
-42 -11 -13 -38 -43 0
-42 -11 -13 -39 -44 0
-42 -11 -13 -40 -45 0
-43 -11 -13 -39 -44 0
-43 -11 -13 -40 -45 0
-44 -11 -13 -40 -45 0
-46 -11 -13 -38 -47 0
-46 -11 -13 -39 -48 0
-46 -11 -13 -40 -49 0
-47 -11 -13 -39 -48 0
-47 -11 -13 -40 -49 0
-48 -11 -13 -40 -49 0
-50 -11 -13 -39 -51 0
-50 -11 -13 -40 -52 0
-51 -11 -13 -40 -52 0
-53 -11 -13 -40 -54 0
-46 -11 -14 -43 -47 0
-46 -11 -14 -44 -48 0
-46 -11 -14 -45 -49 0
-47 -11 -14 -44 -48 0
-47 -11 -14 -45 -49 0
-48 -11 -14 -45 -49 0
-50 -11 -14 -44 -51 0
-50 -11 -14 -45 -52 0
-51 -11 -14 -45 -52 0
-53 -11 -14 -45 -54 0
-50 -11 -15 -48 -51 0
-50 -11 -15 -49 -52 0
-51 -11 -15 -49 -52 0
-53 -11 -15 -49 -54 0
-53 -11 -16 -52 -54 0
-41 -12 -13 -37 -42 0
-41 -12 -13 -38 -43 0
-41 -12 -13 -39 -44 0
-41 -12 -13 -40 -45 0
-42 -12 -13 -38 -43 0
-42 -12 -13 -39 -44 0
-42 -12 -13 -40 -45 0
-43 -12 -13 -39 -44 0
-43 -12 -13 -40 -45 0
-44 -12 -13 -40 -45 0
-46 -12 -13 -38 -47 0
-46 -12 -13 -39 -48 0
-46 -12 -13 -40 -49 0
-47 -12 -13 -39 -48 0
-47 -12 -13 -40 -49 0
-48 -12 -13 -40 -49 0
-50 -12 -13 -39 -51 0
-50 -12 -13 -40 -52 0
-51 -12 -13 -40 -52 0
-53 -12 -13 -40 -54 0
-46 -12 -14 -43 -47 0
-46 -12 -14 -44 -48 0
-46 -12 -14 -45 -49 0
-47 -12 -14 -44 -48 0
-47 -12 -14 -45 -49 0
-48 -12 -14 -45 -49 0
-50 -12 -14 -44 -51 0
-50 -12 -14 -45 -52 0
-51 -12 -14 -45 -52 0
-53 -12 -14 -45 -54 0
-50 -12 -15 -48 -51 0
-50 -12 -15 -49 -52 0
-51 -12 -15 -49 -52 0
-53 -12 -15 -49 -54 0
-53 -12 -16 -52 -54 0
-46 -13 -14 -43 -47 0
-46 -13 -14 -44 -48 0
-46 -13 -14 -45 -49 0
-47 -13 -14 -44 -48 0
-47 -13 -14 -45 -49 0
-48 -13 -14 -45 -49 0
-50 -13 -14 -44 -51 0
-50 -13 -14 -45 -52 0
-51 -13 -14 -45 -52 0
-53 -13 -14 -45 -54 0
-50 -13 -15 -48 -51 0
-50 -13 -15 -49 -52 0
-51 -13 -15 -49 -52 0
-53 -13 -15 -49 -54 0
-53 -13 -16 -52 -54 0
-50 -14 -15 -48 -51 0
-50 -14 -15 -49 -52 0
-51 -14 -15 -49 -52 0
-53 -14 -15 -49 -54 0
-53 -14 -16 -52 -54 0
-53 -15 -16 -52 -54 0
-41 -20 -21 -37 -42 0
-41 -20 -21 -38 -43 0
-41 -20 -21 -39 -44 0
-41 -20 -21 -40 -45 0
-42 -20 -21 -38 -43 0
-42 -20 -21 -39 -44 0
-42 -20 -21 -40 -45 0
-43 -20 -21 -39 -44 0
-43 -20 -21 -40 -45 0
-44 -20 -21 -40 -45 0
-46 -20 -21 -38 -47 0
-46 -20 -21 -39 -48 0
-46 -20 -21 -40 -49 0
-47 -20 -21 -39 -48 0
-47 -20 -21 -40 -49 0
-48 -20 -21 -40 -49 0
-50 -20 -21 -39 -51 0
-50 -20 -21 -40 -52 0
-51 -20 -21 -40 -52 0
-53 -20 -21 -40 -54 0
-46 -20 -22 -43 -47 0
-46 -20 -22 -44 -48 0
-46 -20 -22 -45 -49 0
-47 -20 -22 -44 -48 0
-47 -20 -22 -45 -49 0
-48 -20 -22 -45 -49 0
-50 -20 -22 -44 -51 0
-50 -20 -22 -45 -52 0
-51 -20 -22 -45 -52 0
-53 -20 -22 -45 -54 0
-50 -20 -23 -48 -51 0
-50 -20 -23 -49 -52 0
-51 -20 -23 -49 -52 0
-53 -20 -23 -49 -54 0
-53 -20 -24 -52 -54 0
-46 -21 -22 -43 -47 0
-46 -21 -22 -44 -48 0
-46 -21 -22 -45 -49 0
-47 -21 -22 -44 -48 0
-47 -21 -22 -45 -49 0
-48 -21 -22 -45 -49 0
-50 -21 -22 -44 -51 0
-50 -21 -22 -45 -52 0
-51 -21 -22 -45 -52 0
-53 -21 -22 -45 -54 0
-50 -21 -23 -48 -51 0
-50 -21 -23 -49 -52 0
-51 -21 -23 -49 -52 0
-53 -21 -23 -49 -54 0
-53 -21 -24 -52 -54 0
-50 -22 -23 -48 -51 0
-50 -22 -23 -49 -52 0
-51 -22 -23 -49 -52 0
-53 -22 -23 -49 -54 0
-53 -22 -24 -52 -54 0
-53 -23 -24 -52 -54 0
-46 -28 -29 -43 -47 0
-46 -28 -29 -44 -48 0
-46 -28 -29 -45 -49 0
-47 -28 -29 -44 -48 0
-47 -28 -29 -45 -49 0
-48 -28 -29 -45 -49 0
-50 -28 -29 -44 -51 0
-50 -28 -29 -45 -52 0
-51 -28 -29 -45 -52 0
-53 -28 -29 -45 -54 0
-50 -28 -30 -48 -51 0
-50 -28 -30 -49 -52 0
-51 -28 -30 -49 -52 0
-53 -28 -30 -49 -54 0
-53 -28 -31 -52 -54 0
-50 -29 -30 -48 -51 0
-50 -29 -30 -49 -52 0
-51 -29 -30 -49 -52 0
-53 -29 -30 -49 -54 0
-53 -29 -31 -52 -54 0
-53 -30 -31 -52 -54 0
-50 -35 -36 -48 -51 0
-50 -35 -36 -49 -52 0
-51 -35 -36 -49 -52 0
-53 -35 -36 -49 -54 0
-53 -35 -37 -52 -54 0
-53 -36 -37 -52 -54 0
-53 -41 -42 -52 -54 0
-13 -20 -4 -5 -12 0
-13 -20 -4 -6 -12 0
-13 -20 -4 -7 -12 0
-13 -20 -4 -8 -12 0
-13 -20 -4 -9 -12 0
-13 -20 -4 -10 -12 0
-14 -20 -5 -6 -12 0
-14 -20 -5 -7 -12 0
-14 -20 -5 -8 -12 0
-14 -20 -5 -9 -12 0
-14 -20 -5 -10 -12 0
-15 -20 -6 -7 -12 0
-15 -20 -6 -8 -12 0
-15 -20 -6 -9 -12 0
-15 -20 -6 -10 -12 0
-16 -20 -7 -8 -12 0
-16 -20 -7 -9 -12 0
-16 -20 -7 -10 -12 0
-17 -20 -8 -9 -12 0
-17 -20 -8 -10 -12 0
-18 -20 -9 -10 -12 0
-14 -21 -5 -6 -13 0
-14 -21 -5 -7 -13 0
-14 -21 -5 -8 -13 0
-14 -21 -5 -9 -13 0
-14 -21 -5 -10 -13 0
-15 -21 -6 -7 -13 0
-15 -21 -6 -8 -13 0
-15 -21 -6 -9 -13 0
-15 -21 -6 -10 -13 0
-16 -21 -7 -8 -13 0
-16 -21 -7 -9 -13 0
-16 -21 -7 -10 -13 0
-17 -21 -8 -9 -13 0
-17 -21 -8 -10 -13 0
-18 -21 -9 -10 -13 0
-15 -22 -6 -7 -14 0
-15 -22 -6 -8 -14 0
-15 -22 -6 -9 -14 0
-15 -22 -6 -10 -14 0
-16 -22 -7 -8 -14 0
-16 -22 -7 -9 -14 0
-16 -22 -7 -10 -14 0
-17 -22 -8 -9 -14 0
-17 -22 -8 -10 -14 0
-18 -22 -9 -10 -14 0
-16 -23 -7 -8 -15 0
-16 -23 -7 -9 -15 0
-16 -23 -7 -10 -15 0
-17 -23 -8 -9 -15 0
-17 -23 -8 -10 -15 0
-18 -23 -9 -10 -15 0
-17 -24 -8 -9 -16 0
-17 -24 -8 -10 -16 0
-18 -24 -9 -10 -16 0
-18 -25 -9 -10 -17 0
-14 -28 -5 -6 -13 0
-14 -28 -5 -7 -13 0
-14 -28 -5 -8 -13 0
-14 -28 -5 -9 -13 0
-14 -28 -5 -10 -13 0
-15 -28 -6 -7 -13 0
-15 -28 -6 -8 -13 0
-15 -28 -6 -9 -13 0
-15 -28 -6 -10 -13 0
-16 -28 -7 -8 -13 0
-16 -28 -7 -9 -13 0
-16 -28 -7 -10 -13 0
-17 -28 -8 -9 -13 0
-17 -28 -8 -10 -13 0
-18 -28 -9 -10 -13 0
-15 -29 -6 -7 -14 0
-15 -29 -6 -8 -14 0
-15 -29 -6 -9 -14 0
-15 -29 -6 -10 -14 0
-16 -29 -7 -8 -14 0
-16 -29 -7 -9 -14 0
-16 -29 -7 -10 -14 0
-17 -29 -8 -9 -14 0
-17 -29 -8 -10 -14 0
-18 -29 -9 -10 -14 0
-16 -30 -7 -8 -15 0
-16 -30 -7 -9 -15 0
-16 -30 -7 -10 -15 0
-17 -30 -8 -9 -15 0
-17 -30 -8 -10 -15 0
-18 -30 -9 -10 -15 0
-17 -31 -8 -9 -16 0
-17 -31 -8 -10 -16 0
-18 -31 -9 -10 -16 0
-18 -32 -9 -10 -17 0
-15 -35 -6 -7 -14 0
-15 -35 -6 -8 -14 0
-15 -35 -6 -9 -14 0
-15 -35 -6 -10 -14 0
-16 -35 -7 -8 -14 0
-16 -35 -7 -9 -14 0
-16 -35 -7 -10 -14 0
-17 -35 -8 -9 -14 0
-17 -35 -8 -10 -14 0
-18 -35 -9 -10 -14 0
-16 -36 -7 -8 -15 0
-16 -36 -7 -9 -15 0
-16 -36 -7 -10 -15 0
-17 -36 -8 -9 -15 0
-17 -36 -8 -10 -15 0
-18 -36 -9 -10 -15 0
-17 -37 -8 -9 -16 0
-17 -37 -8 -10 -16 0
-18 -37 -9 -10 -16 0
-18 -38 -9 -10 -17 0
-16 -41 -7 -8 -15 0
-16 -41 -7 -9 -15 0
-16 -41 -7 -10 -15 0
-17 -41 -8 -9 -15 0
-17 -41 -8 -10 -15 0
-18 -41 -9 -10 -15 0
-17 -42 -8 -9 -16 0
-17 -42 -8 -10 -16 0
-18 -42 -9 -10 -16 0
-18 -43 -9 -10 -17 0
-17 -46 -8 -9 -16 0
-17 -46 -8 -10 -16 0
-18 -46 -9 -10 -16 0
-18 -47 -9 -10 -17 0
-18 -50 -9 -10 -17 0
-22 -28 -5 -6 -21 0
-22 -28 -5 -7 -21 0
-22 -28 -5 -8 -21 0
-22 -28 -5 -9 -21 0
-22 -28 -5 -10 -21 0
-23 -28 -6 -7 -21 0
-23 -28 -6 -8 -21 0
-23 -28 -6 -9 -21 0
-23 -28 -6 -10 -21 0
-24 -28 -7 -8 -21 0
-24 -28 -7 -9 -21 0
-24 -28 -7 -10 -21 0
-25 -28 -8 -9 -21 0
-25 -28 -8 -10 -21 0
-26 -28 -9 -10 -21 0
-23 -29 -6 -7 -22 0
-23 -29 -6 -8 -22 0
-23 -29 -6 -9 -22 0
-23 -29 -6 -10 -22 0
-24 -29 -7 -8 -22 0
-24 -29 -7 -9 -22 0
-24 -29 -7 -10 -22 0
-25 -29 -8 -9 -22 0
-25 -29 -8 -10 -22 0
-26 -29 -9 -10 -22 0
-24 -30 -7 -8 -23 0
-24 -30 -7 -9 -23 0
-24 -30 -7 -10 -23 0
-25 -30 -8 -9 -23 0
-25 -30 -8 -10 -23 0
-26 -30 -9 -10 -23 0
-25 -31 -8 -9 -24 0
-25 -31 -8 -10 -24 0
-26 -31 -9 -10 -24 0
-26 -32 -9 -10 -25 0
-23 -35 -6 -7 -22 0
-23 -35 -6 -8 -22 0
-23 -35 -6 -9 -22 0
-23 -35 -6 -10 -22 0
-24 -35 -7 -8 -22 0
-24 -35 -7 -9 -22 0
-24 -35 -7 -10 -22 0
-25 -35 -8 -9 -22 0
-25 -35 -8 -10 -22 0
-26 -35 -9 -10 -22 0
-24 -36 -7 -8 -23 0
-24 -36 -7 -9 -23 0
-24 -36 -7 -10 -23 0
-25 -36 -8 -9 -23 0
-25 -36 -8 -10 -23 0
-26 -36 -9 -10 -23 0
-25 -37 -8 -9 -24 0
-25 -37 -8 -10 -24 0
-26 -37 -9 -10 -24 0
-26 -38 -9 -10 -25 0
-24 -41 -7 -8 -23 0
-24 -41 -7 -9 -23 0
-24 -41 -7 -10 -23 0
-25 -41 -8 -9 -23 0
-25 -41 -8 -10 -23 0
-26 -41 -9 -10 -23 0
-25 -42 -8 -9 -24 0
-25 -42 -8 -10 -24 0
-26 -42 -9 -10 -24 0
-26 -43 -9 -10 -25 0
-25 -46 -8 -9 -24 0
-25 -46 -8 -10 -24 0
-26 -46 -9 -10 -24 0
-26 -47 -9 -10 -25 0
-26 -50 -9 -10 -25 0
-30 -35 -6 -7 -29 0
-30 -35 -6 -8 -29 0
-30 -35 -6 -9 -29 0
-30 -35 -6 -10 -29 0
-31 -35 -7 -8 -29 0
-31 -35 -7 -9 -29 0
-31 -35 -7 -10 -29 0
-32 -35 -8 -9 -29 0
-32 -35 -8 -10 -29 0
-33 -35 -9 -10 -29 0
-31 -36 -7 -8 -30 0
-31 -36 -7 -9 -30 0
-31 -36 -7 -10 -30 0
-32 -36 -8 -9 -30 0
-32 -36 -8 -10 -30 0
-33 -36 -9 -10 -30 0
-32 -37 -8 -9 -31 0
-32 -37 -8 -10 -31 0
-33 -37 -9 -10 -31 0
-33 -38 -9 -10 -32 0
-31 -41 -7 -8 -30 0
-31 -41 -7 -9 -30 0
-31 -41 -7 -10 -30 0
-32 -41 -8 -9 -30 0
-32 -41 -8 -10 -30 0
-33 -41 -9 -10 -30 0
-32 -42 -8 -9 -31 0
-32 -42 -8 -10 -31 0
-33 -42 -9 -10 -31 0
-33 -43 -9 -10 -32 0
-32 -46 -8 -9 -31 0
-32 -46 -8 -10 -31 0
-33 -46 -9 -10 -31 0
-33 -47 -9 -10 -32 0
-33 -50 -9 -10 -32 0
-37 -41 -7 -8 -36 0
-37 -41 -7 -9 -36 0
-37 -41 -7 -10 -36 0
-38 -41 -8 -9 -36 0
-38 -41 -8 -10 -36 0
-39 -41 -9 -10 -36 0
-38 -42 -8 -9 -37 0
-38 -42 -8 -10 -37 0
-39 -42 -9 -10 -37 0
-39 -43 -9 -10 -38 0
-38 -46 -8 -9 -37 0
-38 -46 -8 -10 -37 0
-39 -46 -9 -10 -37 0
-39 -47 -9 -10 -38 0
-39 -50 -9 -10 -38 0
-43 -46 -8 -9 -42 0
-43 -46 -8 -10 -42 0
-44 -46 -9 -10 -42 0
-44 -47 -9 -10 -43 0
-44 -50 -9 -10 -43 0
-48 -50 -9 -10 -47 0
-22 -28 -14 -15 -21 0
-22 -28 -14 -16 -21 0
-22 -28 -14 -17 -21 0
-22 -28 -14 -18 -21 0
-22 -28 -14 -19 -21 0
-23 -28 -15 -16 -21 0
-23 -28 -15 -17 -21 0
-23 -28 -15 -18 -21 0
-23 -28 -15 -19 -21 0
-24 -28 -16 -17 -21 0
-24 -28 -16 -18 -21 0
-24 -28 -16 -19 -21 0
-25 -28 -17 -18 -21 0
-25 -28 -17 -19 -21 0
-26 -28 -18 -19 -21 0
-23 -29 -15 -16 -22 0
-23 -29 -15 -17 -22 0
-23 -29 -15 -18 -22 0
-23 -29 -15 -19 -22 0
-24 -29 -16 -17 -22 0
-24 -29 -16 -18 -22 0
-24 -29 -16 -19 -22 0
-25 -29 -17 -18 -22 0
-25 -29 -17 -19 -22 0
-26 -29 -18 -19 -22 0
-24 -30 -16 -17 -23 0
-24 -30 -16 -18 -23 0
-24 -30 -16 -19 -23 0
-25 -30 -17 -18 -23 0
-25 -30 -17 -19 -23 0
-26 -30 -18 -19 -23 0
-25 -31 -17 -18 -24 0
-25 -31 -17 -19 -24 0
-26 -31 -18 -19 -24 0
-26 -32 -18 -19 -25 0
-23 -35 -15 -16 -22 0
-23 -35 -15 -17 -22 0
-23 -35 -15 -18 -22 0
-23 -35 -15 -19 -22 0
-24 -35 -16 -17 -22 0
-24 -35 -16 -18 -22 0
-24 -35 -16 -19 -22 0
-25 -35 -17 -18 -22 0
-25 -35 -17 -19 -22 0
-26 -35 -18 -19 -22 0
-24 -36 -16 -17 -23 0
-24 -36 -16 -18 -23 0
-24 -36 -16 -19 -23 0
-25 -36 -17 -18 -23 0
-25 -36 -17 -19 -23 0
-26 -36 -18 -19 -23 0
-25 -37 -17 -18 -24 0
-25 -37 -17 -19 -24 0
-26 -37 -18 -19 -24 0
-26 -38 -18 -19 -25 0
-24 -41 -16 -17 -23 0
-24 -41 -16 -18 -23 0
-24 -41 -16 -19 -23 0
-25 -41 -17 -18 -23 0
-25 -41 -17 -19 -23 0
-26 -41 -18 -19 -23 0
-25 -42 -17 -18 -24 0
-25 -42 -17 -19 -24 0
-26 -42 -18 -19 -24 0
-26 -43 -18 -19 -25 0
-25 -46 -17 -18 -24 0
-25 -46 -17 -19 -24 0
-26 -46 -18 -19 -24 0
-26 -47 -18 -19 -25 0
-26 -50 -18 -19 -25 0
-30 -35 -15 -16 -29 0
-30 -35 -15 -17 -29 0
-30 -35 -15 -18 -29 0
-30 -35 -15 -19 -29 0
-31 -35 -16 -17 -29 0
-31 -35 -16 -18 -29 0
-31 -35 -16 -19 -29 0
-32 -35 -17 -18 -29 0
-32 -35 -17 -19 -29 0
-33 -35 -18 -19 -29 0
-31 -36 -16 -17 -30 0
-31 -36 -16 -18 -30 0
-31 -36 -16 -19 -30 0
-32 -36 -17 -18 -30 0
-32 -36 -17 -19 -30 0
-33 -36 -18 -19 -30 0
-32 -37 -17 -18 -31 0
-32 -37 -17 -19 -31 0
-33 -37 -18 -19 -31 0
-33 -38 -18 -19 -32 0
-31 -41 -16 -17 -30 0
-31 -41 -16 -18 -30 0
-31 -41 -16 -19 -30 0
-32 -41 -17 -18 -30 0
-32 -41 -17 -19 -30 0
-33 -41 -18 -19 -30 0
-32 -42 -17 -18 -31 0
-32 -42 -17 -19 -31 0
-33 -42 -18 -19 -31 0
-33 -43 -18 -19 -32 0
-32 -46 -17 -18 -31 0
-32 -46 -17 -19 -31 0
-33 -46 -18 -19 -31 0
-33 -47 -18 -19 -32 0
-33 -50 -18 -19 -32 0
-37 -41 -16 -17 -36 0
-37 -41 -16 -18 -36 0
-37 -41 -16 -19 -36 0
-38 -41 -17 -18 -36 0
-38 -41 -17 -19 -36 0
-39 -41 -18 -19 -36 0
-38 -42 -17 -18 -37 0
-38 -42 -17 -19 -37 0
-39 -42 -18 -19 -37 0
-39 -43 -18 -19 -38 0
-38 -46 -17 -18 -37 0
-38 -46 -17 -19 -37 0
-39 -46 -18 -19 -37 0
-39 -47 -18 -19 -38 0
-39 -50 -18 -19 -38 0
-43 -46 -17 -18 -42 0
-43 -46 -17 -19 -42 0
-44 -46 -18 -19 -42 0
-44 -47 -18 -19 -43 0
-44 -50 -18 -19 -43 0
-48 -50 -18 -19 -47 0
-30 -35 -23 -24 -29 0
-30 -35 -23 -25 -29 0
-30 -35 -23 -26 -29 0
-30 -35 -23 -27 -29 0
-31 -35 -24 -25 -29 0
-31 -35 -24 -26 -29 0
-31 -35 -24 -27 -29 0
-32 -35 -25 -26 -29 0
-32 -35 -25 -27 -29 0
-33 -35 -26 -27 -29 0
-31 -36 -24 -25 -30 0
-31 -36 -24 -26 -30 0
-31 -36 -24 -27 -30 0
-32 -36 -25 -26 -30 0
-32 -36 -25 -27 -30 0
-33 -36 -26 -27 -30 0
-32 -37 -25 -26 -31 0
-32 -37 -25 -27 -31 0
-33 -37 -26 -27 -31 0
-33 -38 -26 -27 -32 0
-31 -41 -24 -25 -30 0
-31 -41 -24 -26 -30 0
-31 -41 -24 -27 -30 0
-32 -41 -25 -26 -30 0
-32 -41 -25 -27 -30 0
-33 -41 -26 -27 -30 0
-32 -42 -25 -26 -31 0
-32 -42 -25 -27 -31 0
-33 -42 -26 -27 -31 0
-33 -43 -26 -27 -32 0
-32 -46 -25 -26 -31 0
-32 -46 -25 -27 -31 0
-33 -46 -26 -27 -31 0
-33 -47 -26 -27 -32 0
-33 -50 -26 -27 -32 0
-37 -41 -24 -25 -36 0
-37 -41 -24 -26 -36 0
-37 -41 -24 -27 -36 0
-38 -41 -25 -26 -36 0
-38 -41 -25 -27 -36 0
-39 -41 -26 -27 -36 0
-38 -42 -25 -26 -37 0
-38 -42 -25 -27 -37 0
-39 -42 -26 -27 -37 0
-39 -43 -26 -27 -38 0
-38 -46 -25 -26 -37 0
-38 -46 -25 -27 -37 0
-39 -46 -26 -27 -37 0
-39 -47 -26 -27 -38 0
-39 -50 -26 -27 -38 0
-43 -46 -25 -26 -42 0
-43 -46 -25 -27 -42 0
-44 -46 -26 -27 -42 0
-44 -47 -26 -27 -43 0
-44 -50 -26 -27 -43 0
-48 -50 -26 -27 -47 0
-37 -41 -31 -32 -36 0
-37 -41 -31 -33 -36 0
-37 -41 -31 -34 -36 0
-38 -41 -32 -33 -36 0
-38 -41 -32 -34 -36 0
-39 -41 -33 -34 -36 0
-38 -42 -32 -33 -37 0
-38 -42 -32 -34 -37 0
-39 -42 -33 -34 -37 0
-39 -43 -33 -34 -38 0
-38 -46 -32 -33 -37 0
-38 -46 -32 -34 -37 0
-39 -46 -33 -34 -37 0
-39 -47 -33 -34 -38 0
-39 -50 -33 -34 -38 0
-43 -46 -32 -33 -42 0
-43 -46 -32 -34 -42 0
-44 -46 -33 -34 -42 0
-44 -47 -33 -34 -43 0
-44 -50 -33 -34 -43 0
-48 -50 -33 -34 -47 0
-43 -46 -38 -39 -42 0
-43 -46 -38 -40 -42 0
-44 -46 -39 -40 -42 0
-44 -47 -39 -40 -43 0
-44 -50 -39 -40 -43 0
-48 -50 -39 -40 -47 0
-48 -50 -44 -45 -47 0
-28 -1 -22 -21 -14 0
-28 -1 -23 -21 -15 0
-28 -1 -24 -21 -16 0
-28 -1 -25 -21 -17 0
-28 -1 -26 -21 -18 0
-28 -1 -27 -21 -19 0
-29 -1 -23 -22 -15 0
-29 -1 -24 -22 -16 0
-29 -1 -25 -22 -17 0
-29 -1 -26 -22 -18 0
-29 -1 -27 -22 -19 0
-30 -1 -24 -23 -16 0
-30 -1 -25 -23 -17 0
-30 -1 -26 -23 -18 0
-30 -1 -27 -23 -19 0
-31 -1 -25 -24 -17 0
-31 -1 -26 -24 -18 0
-31 -1 -27 -24 -19 0
-32 -1 -26 -25 -18 0
-32 -1 -27 -25 -19 0
-33 -1 -27 -26 -19 0
-35 -1 -23 -22 -15 0
-35 -1 -24 -22 -16 0
-35 -1 -25 -22 -17 0
-35 -1 -26 -22 -18 0
-35 -1 -27 -22 -19 0
-36 -1 -24 -23 -16 0
-36 -1 -25 -23 -17 0
-36 -1 -26 -23 -18 0
-36 -1 -27 -23 -19 0
-37 -1 -25 -24 -17 0
-37 -1 -26 -24 -18 0
-37 -1 -27 -24 -19 0
-38 -1 -26 -25 -18 0
-38 -1 -27 -25 -19 0
-39 -1 -27 -26 -19 0
-41 -1 -24 -23 -16 0
-41 -1 -25 -23 -17 0
-41 -1 -26 -23 -18 0
-41 -1 -27 -23 -19 0
-42 -1 -25 -24 -17 0
-42 -1 -26 -24 -18 0
-42 -1 -27 -24 -19 0
-43 -1 -26 -25 -18 0
-43 -1 -27 -25 -19 0
-44 -1 -27 -26 -19 0
-46 -1 -25 -24 -17 0
-46 -1 -26 -24 -18 0
-46 -1 -27 -24 -19 0
-47 -1 -26 -25 -18 0
-47 -1 -27 -25 -19 0
-48 -1 -27 -26 -19 0
-50 -1 -26 -25 -18 0
-50 -1 -27 -25 -19 0
-51 -1 -27 -26 -19 0
-53 -1 -27 -26 -19 0
-35 -1 -30 -29 -15 0
-35 -1 -31 -29 -16 0
-35 -1 -32 -29 -17 0
-35 -1 -33 -29 -18 0
-35 -1 -34 -29 -19 0
-36 -1 -31 -30 -16 0
-36 -1 -32 -30 -17 0
-36 -1 -33 -30 -18 0
-36 -1 -34 -30 -19 0
-37 -1 -32 -31 -17 0
-37 -1 -33 -31 -18 0
-37 -1 -34 -31 -19 0
-38 -1 -33 -32 -18 0
-38 -1 -34 -32 -19 0
-39 -1 -34 -33 -19 0
-41 -1 -31 -30 -16 0
-41 -1 -32 -30 -17 0
-41 -1 -33 -30 -18 0
-41 -1 -34 -30 -19 0
-42 -1 -32 -31 -17 0
-42 -1 -33 -31 -18 0
-42 -1 -34 -31 -19 0
-43 -1 -33 -32 -18 0
-43 -1 -34 -32 -19 0
-44 -1 -34 -33 -19 0
-46 -1 -32 -31 -17 0
-46 -1 -33 -31 -18 0
-46 -1 -34 -31 -19 0
-47 -1 -33 -32 -18 0
-47 -1 -34 -32 -19 0
-48 -1 -34 -33 -19 0
-50 -1 -33 -32 -18 0
-50 -1 -34 -32 -19 0
-51 -1 -34 -33 -19 0
-53 -1 -34 -33 -19 0
-41 -1 -37 -36 -16 0
-41 -1 -38 -36 -17 0
-41 -1 -39 -36 -18 0
-41 -1 -40 -36 -19 0
-42 -1 -38 -37 -17 0
-42 -1 -39 -37 -18 0
-42 -1 -40 -37 -19 0
-43 -1 -39 -38 -18 0
-43 -1 -40 -38 -19 0
-44 -1 -40 -39 -19 0
-46 -1 -38 -37 -17 0
-46 -1 -39 -37 -18 0
-46 -1 -40 -37 -19 0
-47 -1 -39 -38 -18 0
-47 -1 -40 -38 -19 0
-48 -1 -40 -39 -19 0
-50 -1 -39 -38 -18 0
-50 -1 -40 -38 -19 0
-51 -1 -40 -39 -19 0
-53 -1 -40 -39 -19 0
-46 -1 -43 -42 -17 0
-46 -1 -44 -42 -18 0
-46 -1 -45 -42 -19 0
-47 -1 -44 -43 -18 0
-47 -1 -45 -43 -19 0
-48 -1 -45 -44 -19 0
-50 -1 -44 -43 -18 0
-50 -1 -45 -43 -19 0
-51 -1 -45 -44 -19 0
-53 -1 -45 -44 -19 0
-50 -1 -48 -47 -18 0
-50 -1 -49 -47 -19 0
-51 -1 -49 -48 -19 0
-53 -1 -49 -48 -19 0
-53 -1 -52 -51 -19 0
-35 -2 -30 -29 -23 0
-35 -2 -31 -29 -24 0
-35 -2 -32 -29 -25 0
-35 -2 -33 -29 -26 0
-35 -2 -34 -29 -27 0
-36 -2 -31 -30 -24 0
-36 -2 -32 -30 -25 0
-36 -2 -33 -30 -26 0
-36 -2 -34 -30 -27 0
-37 -2 -32 -31 -25 0
-37 -2 -33 -31 -26 0
-37 -2 -34 -31 -27 0
-38 -2 -33 -32 -26 0
-38 -2 -34 -32 -27 0
-39 -2 -34 -33 -27 0
-41 -2 -31 -30 -24 0
-41 -2 -32 -30 -25 0
-41 -2 -33 -30 -26 0
-41 -2 -34 -30 -27 0
-42 -2 -32 -31 -25 0
-42 -2 -33 -31 -26 0
-42 -2 -34 -31 -27 0
-43 -2 -33 -32 -26 0
-43 -2 -34 -32 -27 0
-44 -2 -34 -33 -27 0
-46 -2 -32 -31 -25 0
-46 -2 -33 -31 -26 0
-46 -2 -34 -31 -27 0
-47 -2 -33 -32 -26 0
-47 -2 -34 -32 -27 0
-48 -2 -34 -33 -27 0
-50 -2 -33 -32 -26 0
-50 -2 -34 -32 -27 0
-51 -2 -34 -33 -27 0
-53 -2 -34 -33 -27 0
-41 -2 -37 -36 -24 0
-41 -2 -38 -36 -25 0
-41 -2 -39 -36 -26 0
-41 -2 -40 -36 -27 0
-42 -2 -38 -37 -25 0
-42 -2 -39 -37 -26 0
-42 -2 -40 -37 -27 0
-43 -2 -39 -38 -26 0
-43 -2 -40 -38 -27 0
-44 -2 -40 -39 -27 0
-46 -2 -38 -37 -25 0
-46 -2 -39 -37 -26 0
-46 -2 -40 -37 -27 0
-47 -2 -39 -38 -26 0
-47 -2 -40 -38 -27 0
-48 -2 -40 -39 -27 0
-50 -2 -39 -38 -26 0
-50 -2 -40 -38 -27 0
-51 -2 -40 -39 -27 0
-53 -2 -40 -39 -27 0
-46 -2 -43 -42 -25 0
-46 -2 -44 -42 -26 0
-46 -2 -45 -42 -27 0
-47 -2 -44 -43 -26 0
-47 -2 -45 -43 -27 0
-48 -2 -45 -44 -27 0
-50 -2 -44 -43 -26 0
-50 -2 -45 -43 -27 0
-51 -2 -45 -44 -27 0
-53 -2 -45 -44 -27 0
-50 -2 -48 -47 -26 0
-50 -2 -49 -47 -27 0
-51 -2 -49 -48 -27 0
-53 -2 -49 -48 -27 0
-53 -2 -52 -51 -27 0
-41 -3 -37 -36 -31 0
-41 -3 -38 -36 -32 0
-41 -3 -39 -36 -33 0
-41 -3 -40 -36 -34 0
-42 -3 -38 -37 -32 0
-42 -3 -39 -37 -33 0
-42 -3 -40 -37 -34 0
-43 -3 -39 -38 -33 0
-43 -3 -40 -38 -34 0
-44 -3 -40 -39 -34 0
-46 -3 -38 -37 -32 0
-46 -3 -39 -37 -33 0
-46 -3 -40 -37 -34 0
-47 -3 -39 -38 -33 0
-47 -3 -40 -38 -34 0
-48 -3 -40 -39 -34 0
-50 -3 -39 -38 -33 0
-50 -3 -40 -38 -34 0
-51 -3 -40 -39 -34 0
-53 -3 -40 -39 -34 0
-46 -3 -43 -42 -32 0
-46 -3 -44 -42 -33 0
-46 -3 -45 -42 -34 0
-47 -3 -44 -43 -33 0
-47 -3 -45 -43 -34 0
-48 -3 -45 -44 -34 0
-50 -3 -44 -43 -33 0
-50 -3 -45 -43 -34 0
-51 -3 -45 -44 -34 0
-53 -3 -45 -44 -34 0
-50 -3 -48 -47 -33 0
-50 -3 -49 -47 -34 0
-51 -3 -49 -48 -34 0
-53 -3 -49 -48 -34 0
-53 -3 -52 -51 -34 0
-46 -4 -43 -42 -38 0
-46 -4 -44 -42 -39 0
-46 -4 -45 -42 -40 0
-47 -4 -44 -43 -39 0
-47 -4 -45 -43 -40 0
-48 -4 -45 -44 -40 0
-50 -4 -44 -43 -39 0
-50 -4 -45 -43 -40 0
-51 -4 -45 -44 -40 0
-53 -4 -45 -44 -40 0
-50 -4 -48 -47 -39 0
-50 -4 -49 -47 -40 0
-51 -4 -49 -48 -40 0
-53 -4 -49 -48 -40 0
-53 -4 -52 -51 -40 0
-50 -5 -48 -47 -44 0
-50 -5 -49 -47 -45 0
-51 -5 -49 -48 -45 0
-53 -5 -49 -48 -45 0
-53 -5 -52 -51 -45 0
-53 -6 -52 -51 -49 0
-35 -11 -30 -29 -23 0
-35 -11 -31 -29 -24 0
-35 -11 -32 -29 -25 0
-35 -11 -33 -29 -26 0
-35 -11 -34 -29 -27 0
-36 -11 -31 -30 -24 0
-36 -11 -32 -30 -25 0
-36 -11 -33 -30 -26 0
-36 -11 -34 -30 -27 0
-37 -11 -32 -31 -25 0
-37 -11 -33 -31 -26 0
-37 -11 -34 -31 -27 0
-38 -11 -33 -32 -26 0
-38 -11 -34 -32 -27 0
-39 -11 -34 -33 -27 0
-41 -11 -31 -30 -24 0
-41 -11 -32 -30 -25 0
-41 -11 -33 -30 -26 0
-41 -11 -34 -30 -27 0
-42 -11 -32 -31 -25 0
-42 -11 -33 -31 -26 0
-42 -11 -34 -31 -27 0
-43 -11 -33 -32 -26 0
-43 -11 -34 -32 -27 0
-44 -11 -34 -33 -27 0
-46 -11 -32 -31 -25 0
-46 -11 -33 -31 -26 0
-46 -11 -34 -31 -27 0
-47 -11 -33 -32 -26 0
-47 -11 -34 -32 -27 0
-48 -11 -34 -33 -27 0
-50 -11 -33 -32 -26 0
-50 -11 -34 -32 -27 0
-51 -11 -34 -33 -27 0
-53 -11 -34 -33 -27 0
-41 -11 -37 -36 -24 0
-41 -11 -38 -36 -25 0
-41 -11 -39 -36 -26 0
-41 -11 -40 -36 -27 0
-42 -11 -38 -37 -25 0
-42 -11 -39 -37 -26 0
-42 -11 -40 -37 -27 0
-43 -11 -39 -38 -26 0
-43 -11 -40 -38 -27 0
-44 -11 -40 -39 -27 0
-46 -11 -38 -37 -25 0
-46 -11 -39 -37 -26 0
-46 -11 -40 -37 -27 0
-47 -11 -39 -38 -26 0
-47 -11 -40 -38 -27 0
-48 -11 -40 -39 -27 0
-50 -11 -39 -38 -26 0
-50 -11 -40 -38 -27 0
-51 -11 -40 -39 -27 0
-53 -11 -40 -39 -27 0
-46 -11 -43 -42 -25 0
-46 -11 -44 -42 -26 0
-46 -11 -45 -42 -27 0
-47 -11 -44 -43 -26 0
-47 -11 -45 -43 -27 0
-48 -11 -45 -44 -27 0
-50 -11 -44 -43 -26 0
-50 -11 -45 -43 -27 0
-51 -11 -45 -44 -27 0
-53 -11 -45 -44 -27 0
-50 -11 -48 -47 -26 0
-50 -11 -49 -47 -27 0
-51 -11 -49 -48 -27 0
-53 -11 -49 -48 -27 0
-53 -11 -52 -51 -27 0
-41 -12 -37 -36 -31 0
-41 -12 -38 -36 -32 0
-41 -12 -39 -36 -33 0
-41 -12 -40 -36 -34 0
-42 -12 -38 -37 -32 0
-42 -12 -39 -37 -33 0
-42 -12 -40 -37 -34 0
-43 -12 -39 -38 -33 0
-43 -12 -40 -38 -34 0
-44 -12 -40 -39 -34 0
-46 -12 -38 -37 -32 0
-46 -12 -39 -37 -33 0
-46 -12 -40 -37 -34 0
-47 -12 -39 -38 -33 0
-47 -12 -40 -38 -34 0
-48 -12 -40 -39 -34 0
-50 -12 -39 -38 -33 0
-50 -12 -40 -38 -34 0
-51 -12 -40 -39 -34 0
-53 -12 -40 -39 -34 0
-46 -12 -43 -42 -32 0
-46 -12 -44 -42 -33 0
-46 -12 -45 -42 -34 0
-47 -12 -44 -43 -33 0
-47 -12 -45 -43 -34 0
-48 -12 -45 -44 -34 0
-50 -12 -44 -43 -33 0
-50 -12 -45 -43 -34 0
-51 -12 -45 -44 -34 0
-53 -12 -45 -44 -34 0
-50 -12 -48 -47 -33 0
-50 -12 -49 -47 -34 0
-51 -12 -49 -48 -34 0
-53 -12 -49 -48 -34 0
-53 -12 -52 -51 -34 0
-46 -13 -43 -42 -38 0
-46 -13 -44 -42 -39 0
-46 -13 -45 -42 -40 0
-47 -13 -44 -43 -39 0
-47 -13 -45 -43 -40 0
-48 -13 -45 -44 -40 0
-50 -13 -44 -43 -39 0
-50 -13 -45 -43 -40 0
-51 -13 -45 -44 -40 0
-53 -13 -45 -44 -40 0
-50 -13 -48 -47 -39 0
-50 -13 -49 -47 -40 0
-51 -13 -49 -48 -40 0
-53 -13 -49 -48 -40 0
-53 -13 -52 -51 -40 0
-50 -14 -48 -47 -44 0
-50 -14 -49 -47 -45 0
-51 -14 -49 -48 -45 0
-53 -14 -49 -48 -45 0
-53 -14 -52 -51 -45 0
-53 -15 -52 -51 -49 0
-41 -20 -37 -36 -31 0
-41 -20 -38 -36 -32 0
-41 -20 -39 -36 -33 0
-41 -20 -40 -36 -34 0
-42 -20 -38 -37 -32 0
-42 -20 -39 -37 -33 0
-42 -20 -40 -37 -34 0
-43 -20 -39 -38 -33 0
-43 -20 -40 -38 -34 0
-44 -20 -40 -39 -34 0
-46 -20 -38 -37 -32 0
-46 -20 -39 -37 -33 0
-46 -20 -40 -37 -34 0
-47 -20 -39 -38 -33 0
-47 -20 -40 -38 -34 0
-48 -20 -40 -39 -34 0
-50 -20 -39 -38 -33 0
-50 -20 -40 -38 -34 0
-51 -20 -40 -39 -34 0
-53 -20 -40 -39 -34 0
-46 -20 -43 -42 -32 0
-46 -20 -44 -42 -33 0
-46 -20 -45 -42 -34 0
-47 -20 -44 -43 -33 0
-47 -20 -45 -43 -34 0
-48 -20 -45 -44 -34 0
-50 -20 -44 -43 -33 0
-50 -20 -45 -43 -34 0
-51 -20 -45 -44 -34 0
-53 -20 -45 -44 -34 0
-50 -20 -48 -47 -33 0
-50 -20 -49 -47 -34 0
-51 -20 -49 -48 -34 0
-53 -20 -49 -48 -34 0
-53 -20 -52 -51 -34 0
-46 -21 -43 -42 -38 0
-46 -21 -44 -42 -39 0
-46 -21 -45 -42 -40 0
-47 -21 -44 -43 -39 0
-47 -21 -45 -43 -40 0
-48 -21 -45 -44 -40 0
-50 -21 -44 -43 -39 0
-50 -21 -45 -43 -40 0
-51 -21 -45 -44 -40 0
-53 -21 -45 -44 -40 0
-50 -21 -48 -47 -39 0
-50 -21 -49 -47 -40 0
-51 -21 -49 -48 -40 0
-53 -21 -49 -48 -40 0
-53 -21 -52 -51 -40 0
-50 -22 -48 -47 -44 0
-50 -22 -49 -47 -45 0
-51 -22 -49 -48 -45 0
-53 -22 -49 -48 -45 0
-53 -22 -52 -51 -45 0
-53 -23 -52 -51 -49 0
-46 -28 -43 -42 -38 0
-46 -28 -44 -42 -39 0
-46 -28 -45 -42 -40 0
-47 -28 -44 -43 -39 0
-47 -28 -45 -43 -40 0
-48 -28 -45 -44 -40 0
-50 -28 -44 -43 -39 0
-50 -28 -45 -43 -40 0
-51 -28 -45 -44 -40 0
-53 -28 -45 -44 -40 0
-50 -28 -48 -47 -39 0
-50 -28 -49 -47 -40 0
-51 -28 -49 -48 -40 0
-53 -28 -49 -48 -40 0
-53 -28 -52 -51 -40 0
-50 -29 -48 -47 -44 0
-50 -29 -49 -47 -45 0
-51 -29 -49 -48 -45 0
-53 -29 -49 -48 -45 0
-53 -29 -52 -51 -45 0
-53 -30 -52 -51 -49 0
-50 -35 -48 -47 -44 0
-50 -35 -49 -47 -45 0
-51 -35 -49 -48 -45 0
-53 -35 -49 -48 -45 0
-53 -35 -52 -51 -45 0
-53 -36 -52 -51 -49 0
-53 -41 -52 -51 -49 0
