c PREP49 independent closure: (P_5alt,Dih(5)) vs K_3, n=8; expect SAT (lower bound: R_dih(P_5alt,K_3) > 8); encoded fresh from statement.md, not the referees' encoders
p cnf 28 616
4 10 9 14 0
1 10 15 14 0
8 2 3 19 0
1 2 15 19 0
14 9 10 4 0
8 9 3 4 0
19 15 2 1 0
14 15 10 1 0
19 3 2 8 0
4 3 9 8 0
5 11 9 14 0
1 11 16 14 0
8 2 3 20 0
1 2 16 20 0
14 9 11 5 0
8 9 3 5 0
20 16 2 1 0
14 16 11 1 0
20 3 2 8 0
5 3 9 8 0
6 12 9 14 0
1 12 17 14 0
8 2 3 21 0
1 2 17 21 0
14 9 12 6 0
8 9 3 6 0
21 17 2 1 0
14 17 12 1 0
21 3 2 8 0
6 3 9 8 0
7 13 9 14 0
1 13 18 14 0
8 2 3 22 0
1 2 18 22 0
14 9 13 7 0
8 9 3 7 0
22 18 2 1 0
14 18 13 1 0
22 3 2 8 0
7 3 9 8 0
5 11 10 15 0
1 11 16 15 0
8 2 4 23 0
1 2 16 23 0
15 10 11 5 0
8 10 4 5 0
23 16 2 1 0
15 16 11 1 0
23 4 2 8 0
5 4 10 8 0
6 12 10 15 0
1 12 17 15 0
8 2 4 24 0
1 2 17 24 0
15 10 12 6 0
8 10 4 6 0
24 17 2 1 0
15 17 12 1 0
24 4 2 8 0
6 4 10 8 0
7 13 10 15 0
1 13 18 15 0
8 2 4 25 0
1 2 18 25 0
15 10 13 7 0
8 10 4 7 0
25 18 2 1 0
15 18 13 1 0
25 4 2 8 0
7 4 10 8 0
6 12 11 16 0
1 12 17 16 0
8 2 5 26 0
1 2 17 26 0
16 11 12 6 0
8 11 5 6 0
26 17 2 1 0
16 17 12 1 0
26 5 2 8 0
6 5 11 8 0
7 13 11 16 0
1 13 18 16 0
8 2 5 27 0
1 2 18 27 0
16 11 13 7 0
8 11 5 7 0
27 18 2 1 0
16 18 13 1 0
27 5 2 8 0
7 5 11 8 0
7 13 12 17 0
1 13 18 17 0
8 2 6 28 0
1 2 18 28 0
17 12 13 7 0
8 12 6 7 0
28 18 2 1 0
17 18 13 1 0
28 6 2 8 0
7 6 12 8 0
5 11 10 19 0
1 11 20 19 0
9 3 4 23 0
1 3 20 23 0
19 10 11 5 0
9 10 4 5 0
23 20 3 1 0
19 20 11 1 0
23 4 3 9 0
5 4 10 9 0
6 12 10 19 0
1 12 21 19 0
9 3 4 24 0
1 3 21 24 0
19 10 12 6 0
9 10 4 6 0
24 21 3 1 0
19 21 12 1 0
24 4 3 9 0
6 4 10 9 0
7 13 10 19 0
1 13 22 19 0
9 3 4 25 0
1 3 22 25 0
19 10 13 7 0
9 10 4 7 0
25 22 3 1 0
19 22 13 1 0
25 4 3 9 0
7 4 10 9 0
6 12 11 20 0
1 12 21 20 0
9 3 5 26 0
1 3 21 26 0
20 11 12 6 0
9 11 5 6 0
26 21 3 1 0
20 21 12 1 0
26 5 3 9 0
6 5 11 9 0
7 13 11 20 0
1 13 22 20 0
9 3 5 27 0
1 3 22 27 0
20 11 13 7 0
9 11 5 7 0
27 22 3 1 0
20 22 13 1 0
27 5 3 9 0
7 5 11 9 0
7 13 12 21 0
1 13 22 21 0
9 3 6 28 0
1 3 22 28 0
21 12 13 7 0
9 12 6 7 0
28 22 3 1 0
21 22 13 1 0
28 6 3 9 0
7 6 12 9 0
6 12 11 23 0
1 12 24 23 0
10 4 5 26 0
1 4 24 26 0
23 11 12 6 0
10 11 5 6 0
26 24 4 1 0
23 24 12 1 0
26 5 4 10 0
6 5 11 10 0
7 13 11 23 0
1 13 25 23 0
10 4 5 27 0
1 4 25 27 0
23 11 13 7 0
10 11 5 7 0
27 25 4 1 0
23 25 13 1 0
27 5 4 10 0
7 5 11 10 0
7 13 12 24 0
1 13 25 24 0
10 4 6 28 0
1 4 25 28 0
24 12 13 7 0
10 12 6 7 0
28 25 4 1 0
24 25 13 1 0
28 6 4 10 0
7 6 12 10 0
7 13 12 26 0
1 13 27 26 0
11 5 6 28 0
1 5 27 28 0
26 12 13 7 0
11 12 6 7 0
28 27 5 1 0
26 27 13 1 0
28 6 5 11 0
7 6 12 11 0
5 16 15 19 0
2 16 20 19 0
14 3 4 23 0
2 3 20 23 0
19 15 16 5 0
14 15 4 5 0
23 20 3 2 0
19 20 16 2 0
23 4 3 14 0
5 4 15 14 0
6 17 15 19 0
2 17 21 19 0
14 3 4 24 0
2 3 21 24 0
19 15 17 6 0
14 15 4 6 0
24 21 3 2 0
19 21 17 2 0
24 4 3 14 0
6 4 15 14 0
7 18 15 19 0
2 18 22 19 0
14 3 4 25 0
2 3 22 25 0
19 15 18 7 0
14 15 4 7 0
25 22 3 2 0
19 22 18 2 0
25 4 3 14 0
7 4 15 14 0
6 17 16 20 0
2 17 21 20 0
14 3 5 26 0
2 3 21 26 0
20 16 17 6 0
14 16 5 6 0
26 21 3 2 0
20 21 17 2 0
26 5 3 14 0
6 5 16 14 0
7 18 16 20 0
2 18 22 20 0
14 3 5 27 0
2 3 22 27 0
20 16 18 7 0
14 16 5 7 0
27 22 3 2 0
20 22 18 2 0
27 5 3 14 0
7 5 16 14 0
7 18 17 21 0
2 18 22 21 0
14 3 6 28 0
2 3 22 28 0
21 17 18 7 0
14 17 6 7 0
28 22 3 2 0
21 22 18 2 0
28 6 3 14 0
7 6 17 14 0
6 17 16 23 0
2 17 24 23 0
15 4 5 26 0
2 4 24 26 0
23 16 17 6 0
15 16 5 6 0
26 24 4 2 0
23 24 17 2 0
26 5 4 15 0
6 5 16 15 0
7 18 16 23 0
2 18 25 23 0
15 4 5 27 0
2 4 25 27 0
23 16 18 7 0
15 16 5 7 0
27 25 4 2 0
23 25 18 2 0
27 5 4 15 0
7 5 16 15 0
7 18 17 24 0
2 18 25 24 0
15 4 6 28 0
2 4 25 28 0
24 17 18 7 0
15 17 6 7 0
28 25 4 2 0
24 25 18 2 0
28 6 4 15 0
7 6 17 15 0
7 18 17 26 0
2 18 27 26 0
16 5 6 28 0
2 5 27 28 0
26 17 18 7 0
16 17 6 7 0
28 27 5 2 0
26 27 18 2 0
28 6 5 16 0
7 6 17 16 0
6 21 20 23 0
3 21 24 23 0
19 4 5 26 0
3 4 24 26 0
23 20 21 6 0
19 20 5 6 0
26 24 4 3 0
23 24 21 3 0
26 5 4 19 0
6 5 20 19 0
7 22 20 23 0
3 22 25 23 0
19 4 5 27 0
3 4 25 27 0
23 20 22 7 0
19 20 5 7 0
27 25 4 3 0
23 25 22 3 0
27 5 4 19 0
7 5 20 19 0
7 22 21 24 0
3 22 25 24 0
19 4 6 28 0
3 4 25 28 0
24 21 22 7 0
19 21 6 7 0
28 25 4 3 0
24 25 22 3 0
28 6 4 19 0
7 6 21 19 0
7 22 21 26 0
3 22 27 26 0
20 5 6 28 0
3 5 27 28 0
26 21 22 7 0
20 21 6 7 0
28 27 5 3 0
26 27 22 3 0
28 6 5 20 0
7 6 21 20 0
7 25 24 26 0
4 25 27 26 0
23 5 6 28 0
4 5 27 28 0
26 24 25 7 0
23 24 6 7 0
28 27 5 4 0
26 27 25 4 0
28 6 5 23 0
7 6 24 23 0
11 16 15 19 0
8 16 20 19 0
14 9 10 23 0
8 9 20 23 0
19 15 16 11 0
14 15 10 11 0
23 20 9 8 0
19 20 16 8 0
23 10 9 14 0
11 10 15 14 0
12 17 15 19 0
8 17 21 19 0
14 9 10 24 0
8 9 21 24 0
19 15 17 12 0
14 15 10 12 0
24 21 9 8 0
19 21 17 8 0
24 10 9 14 0
12 10 15 14 0
13 18 15 19 0
8 18 22 19 0
14 9 10 25 0
8 9 22 25 0
19 15 18 13 0
14 15 10 13 0
25 22 9 8 0
19 22 18 8 0
25 10 9 14 0
13 10 15 14 0
12 17 16 20 0
8 17 21 20 0
14 9 11 26 0
8 9 21 26 0
20 16 17 12 0
14 16 11 12 0
26 21 9 8 0
20 21 17 8 0
26 11 9 14 0
12 11 16 14 0
13 18 16 20 0
8 18 22 20 0
14 9 11 27 0
8 9 22 27 0
20 16 18 13 0
14 16 11 13 0
27 22 9 8 0
20 22 18 8 0
27 11 9 14 0
13 11 16 14 0
13 18 17 21 0
8 18 22 21 0
14 9 12 28 0
8 9 22 28 0
21 17 18 13 0
14 17 12 13 0
28 22 9 8 0
21 22 18 8 0
28 12 9 14 0
13 12 17 14 0
12 17 16 23 0
8 17 24 23 0
15 10 11 26 0
8 10 24 26 0
23 16 17 12 0
15 16 11 12 0
26 24 10 8 0
23 24 17 8 0
26 11 10 15 0
12 11 16 15 0
13 18 16 23 0
8 18 25 23 0
15 10 11 27 0
8 10 25 27 0
23 16 18 13 0
15 16 11 13 0
27 25 10 8 0
23 25 18 8 0
27 11 10 15 0
13 11 16 15 0
13 18 17 24 0
8 18 25 24 0
15 10 12 28 0
8 10 25 28 0
24 17 18 13 0
15 17 12 13 0
28 25 10 8 0
24 25 18 8 0
28 12 10 15 0
13 12 17 15 0
13 18 17 26 0
8 18 27 26 0
16 11 12 28 0
8 11 27 28 0
26 17 18 13 0
16 17 12 13 0
28 27 11 8 0
26 27 18 8 0
28 12 11 16 0
13 12 17 16 0
12 21 20 23 0
9 21 24 23 0
19 10 11 26 0
9 10 24 26 0
23 20 21 12 0
19 20 11 12 0
26 24 10 9 0
23 24 21 9 0
26 11 10 19 0
12 11 20 19 0
13 22 20 23 0
9 22 25 23 0
19 10 11 27 0
9 10 25 27 0
23 20 22 13 0
19 20 11 13 0
27 25 10 9 0
23 25 22 9 0
27 11 10 19 0
13 11 20 19 0
13 22 21 24 0
9 22 25 24 0
19 10 12 28 0
9 10 25 28 0
24 21 22 13 0
19 21 12 13 0
28 25 10 9 0
24 25 22 9 0
28 12 10 19 0
13 12 21 19 0
13 22 21 26 0
9 22 27 26 0
20 11 12 28 0
9 11 27 28 0
26 21 22 13 0
20 21 12 13 0
28 27 11 9 0
26 27 22 9 0
28 12 11 20 0
13 12 21 20 0
13 25 24 26 0
10 25 27 26 0
23 11 12 28 0
10 11 27 28 0
26 24 25 13 0
23 24 12 13 0
28 27 11 10 0
26 27 25 10 0
28 12 11 23 0
13 12 24 23 0
17 21 20 23 0
14 21 24 23 0
19 15 16 26 0
14 15 24 26 0
23 20 21 17 0
19 20 16 17 0
26 24 15 14 0
23 24 21 14 0
26 16 15 19 0
17 16 20 19 0
18 22 20 23 0
14 22 25 23 0
19 15 16 27 0
14 15 25 27 0
23 20 22 18 0
19 20 16 18 0
27 25 15 14 0
23 25 22 14 0
27 16 15 19 0
18 16 20 19 0
18 22 21 24 0
14 22 25 24 0
19 15 17 28 0
14 15 25 28 0
24 21 22 18 0
19 21 17 18 0
28 25 15 14 0
24 25 22 14 0
28 17 15 19 0
18 17 21 19 0
18 22 21 26 0
14 22 27 26 0
20 16 17 28 0
14 16 27 28 0
26 21 22 18 0
20 21 17 18 0
28 27 16 14 0
26 27 22 14 0
28 17 16 20 0
18 17 21 20 0
18 25 24 26 0
15 25 27 26 0
23 16 17 28 0
15 16 27 28 0
26 24 25 18 0
23 24 17 18 0
28 27 16 15 0
26 27 25 15 0
28 17 16 23 0
18 17 24 23 0
22 25 24 26 0
19 25 27 26 0
23 20 21 28 0
19 20 27 28 0
26 24 25 22 0
23 24 21 22 0
28 27 20 19 0
26 27 25 19 0
28 21 20 23 0
22 21 24 23 0
-1 -2 -8 0
-1 -3 -9 0
-1 -4 -10 0
-1 -5 -11 0
-1 -6 -12 0
-1 -7 -13 0
-2 -3 -14 0
-2 -4 -15 0
-2 -5 -16 0
-2 -6 -17 0
-2 -7 -18 0
-3 -4 -19 0
-3 -5 -20 0
-3 -6 -21 0
-3 -7 -22 0
-4 -5 -23 0
-4 -6 -24 0
-4 -7 -25 0
-5 -6 -26 0
-5 -7 -27 0
-6 -7 -28 0
-8 -9 -14 0
-8 -10 -15 0
-8 -11 -16 0
-8 -12 -17 0
-8 -13 -18 0
-9 -10 -19 0
-9 -11 -20 0
-9 -12 -21 0
-9 -13 -22 0
-10 -11 -23 0
-10 -12 -24 0
-10 -13 -25 0
-11 -12 -26 0
-11 -13 -27 0
-12 -13 -28 0
-14 -15 -19 0
-14 -16 -20 0
-14 -17 -21 0
-14 -18 -22 0
-15 -16 -23 0
-15 -17 -24 0
-15 -18 -25 0
-16 -17 -26 0
-16 -18 -27 0
-17 -18 -28 0
-19 -20 -23 0
-19 -21 -24 0
-19 -22 -25 0
-20 -21 -26 0
-20 -22 -27 0
-21 -22 -28 0
-23 -24 -26 0
-23 -25 -27 0
-24 -25 -28 0
-26 -27 -28 0
