c PREP49 independent closure: (P_5alt,Dih(5)) vs K_3, n=9; expect UNSAT (upper bound: R_dih(P_5alt,K_3) <= 9); encoded fresh from statement.md, not the referees' encoders
p cnf 36 1344
4 11 10 16 0
1 11 17 16 0
9 2 3 22 0
1 2 17 22 0
16 10 11 4 0
9 10 3 4 0
22 17 2 1 0
16 17 11 1 0
22 3 2 9 0
4 3 10 9 0
5 12 10 16 0
1 12 18 16 0
9 2 3 23 0
1 2 18 23 0
16 10 12 5 0
9 10 3 5 0
23 18 2 1 0
16 18 12 1 0
23 3 2 9 0
5 3 10 9 0
6 13 10 16 0
1 13 19 16 0
9 2 3 24 0
1 2 19 24 0
16 10 13 6 0
9 10 3 6 0
24 19 2 1 0
16 19 13 1 0
24 3 2 9 0
6 3 10 9 0
7 14 10 16 0
1 14 20 16 0
9 2 3 25 0
1 2 20 25 0
16 10 14 7 0
9 10 3 7 0
25 20 2 1 0
16 20 14 1 0
25 3 2 9 0
7 3 10 9 0
8 15 10 16 0
1 15 21 16 0
9 2 3 26 0
1 2 21 26 0
16 10 15 8 0
9 10 3 8 0
26 21 2 1 0
16 21 15 1 0
26 3 2 9 0
8 3 10 9 0
5 12 11 17 0
1 12 18 17 0
9 2 4 27 0
1 2 18 27 0
17 11 12 5 0
9 11 4 5 0
27 18 2 1 0
17 18 12 1 0
27 4 2 9 0
5 4 11 9 0
6 13 11 17 0
1 13 19 17 0
9 2 4 28 0
1 2 19 28 0
17 11 13 6 0
9 11 4 6 0
28 19 2 1 0
17 19 13 1 0
28 4 2 9 0
6 4 11 9 0
7 14 11 17 0
1 14 20 17 0
9 2 4 29 0
1 2 20 29 0
17 11 14 7 0
9 11 4 7 0
29 20 2 1 0
17 20 14 1 0
29 4 2 9 0
7 4 11 9 0
8 15 11 17 0
1 15 21 17 0
9 2 4 30 0
1 2 21 30 0
17 11 15 8 0
9 11 4 8 0
30 21 2 1 0
17 21 15 1 0
30 4 2 9 0
8 4 11 9 0
6 13 12 18 0
1 13 19 18 0
9 2 5 31 0
1 2 19 31 0
18 12 13 6 0
9 12 5 6 0
31 19 2 1 0
18 19 13 1 0
31 5 2 9 0
6 5 12 9 0
7 14 12 18 0
1 14 20 18 0
9 2 5 32 0
1 2 20 32 0
18 12 14 7 0
9 12 5 7 0
32 20 2 1 0
18 20 14 1 0
32 5 2 9 0
7 5 12 9 0
8 15 12 18 0
1 15 21 18 0
9 2 5 33 0
1 2 21 33 0
18 12 15 8 0
9 12 5 8 0
33 21 2 1 0
18 21 15 1 0
33 5 2 9 0
8 5 12 9 0
7 14 13 19 0
1 14 20 19 0
9 2 6 34 0
1 2 20 34 0
19 13 14 7 0
9 13 6 7 0
34 20 2 1 0
19 20 14 1 0
34 6 2 9 0
7 6 13 9 0
8 15 13 19 0
1 15 21 19 0
9 2 6 35 0
1 2 21 35 0
19 13 15 8 0
9 13 6 8 0
35 21 2 1 0
19 21 15 1 0
35 6 2 9 0
8 6 13 9 0
8 15 14 20 0
1 15 21 20 0
9 2 7 36 0
1 2 21 36 0
20 14 15 8 0
9 14 7 8 0
36 21 2 1 0
20 21 15 1 0
36 7 2 9 0
8 7 14 9 0
5 12 11 22 0
1 12 23 22 0
10 3 4 27 0
1 3 23 27 0
22 11 12 5 0
10 11 4 5 0
27 23 3 1 0
22 23 12 1 0
27 4 3 10 0
5 4 11 10 0
6 13 11 22 0
1 13 24 22 0
10 3 4 28 0
1 3 24 28 0
22 11 13 6 0
10 11 4 6 0
28 24 3 1 0
22 24 13 1 0
28 4 3 10 0
6 4 11 10 0
7 14 11 22 0
1 14 25 22 0
10 3 4 29 0
1 3 25 29 0
22 11 14 7 0
10 11 4 7 0
29 25 3 1 0
22 25 14 1 0
29 4 3 10 0
7 4 11 10 0
8 15 11 22 0
1 15 26 22 0
10 3 4 30 0
1 3 26 30 0
22 11 15 8 0
10 11 4 8 0
30 26 3 1 0
22 26 15 1 0
30 4 3 10 0
8 4 11 10 0
6 13 12 23 0
1 13 24 23 0
10 3 5 31 0
1 3 24 31 0
23 12 13 6 0
10 12 5 6 0
31 24 3 1 0
23 24 13 1 0
31 5 3 10 0
6 5 12 10 0
7 14 12 23 0
1 14 25 23 0
10 3 5 32 0
1 3 25 32 0
23 12 14 7 0
10 12 5 7 0
32 25 3 1 0
23 25 14 1 0
32 5 3 10 0
7 5 12 10 0
8 15 12 23 0
1 15 26 23 0
10 3 5 33 0
1 3 26 33 0
23 12 15 8 0
10 12 5 8 0
33 26 3 1 0
23 26 15 1 0
33 5 3 10 0
8 5 12 10 0
7 14 13 24 0
1 14 25 24 0
10 3 6 34 0
1 3 25 34 0
24 13 14 7 0
10 13 6 7 0
34 25 3 1 0
24 25 14 1 0
34 6 3 10 0
7 6 13 10 0
8 15 13 24 0
1 15 26 24 0
10 3 6 35 0
1 3 26 35 0
24 13 15 8 0
10 13 6 8 0
35 26 3 1 0
24 26 15 1 0
35 6 3 10 0
8 6 13 10 0
8 15 14 25 0
1 15 26 25 0
10 3 7 36 0
1 3 26 36 0
25 14 15 8 0
10 14 7 8 0
36 26 3 1 0
25 26 15 1 0
36 7 3 10 0
8 7 14 10 0
6 13 12 27 0
1 13 28 27 0
11 4 5 31 0
1 4 28 31 0
27 12 13 6 0
11 12 5 6 0
31 28 4 1 0
27 28 13 1 0
31 5 4 11 0
6 5 12 11 0
7 14 12 27 0
1 14 29 27 0
11 4 5 32 0
1 4 29 32 0
27 12 14 7 0
11 12 5 7 0
32 29 4 1 0
27 29 14 1 0
32 5 4 11 0
7 5 12 11 0
8 15 12 27 0
1 15 30 27 0
11 4 5 33 0
1 4 30 33 0
27 12 15 8 0
11 12 5 8 0
33 30 4 1 0
27 30 15 1 0
33 5 4 11 0
8 5 12 11 0
7 14 13 28 0
1 14 29 28 0
11 4 6 34 0
1 4 29 34 0
28 13 14 7 0
11 13 6 7 0
34 29 4 1 0
28 29 14 1 0
34 6 4 11 0
7 6 13 11 0
8 15 13 28 0
1 15 30 28 0
11 4 6 35 0
1 4 30 35 0
28 13 15 8 0
11 13 6 8 0
35 30 4 1 0
28 30 15 1 0
35 6 4 11 0
8 6 13 11 0
8 15 14 29 0
1 15 30 29 0
11 4 7 36 0
1 4 30 36 0
29 14 15 8 0
11 14 7 8 0
36 30 4 1 0
29 30 15 1 0
36 7 4 11 0
8 7 14 11 0
7 14 13 31 0
1 14 32 31 0
12 5 6 34 0
1 5 32 34 0
31 13 14 7 0
12 13 6 7 0
34 32 5 1 0
31 32 14 1 0
34 6 5 12 0
7 6 13 12 0
8 15 13 31 0
1 15 33 31 0
12 5 6 35 0
1 5 33 35 0
31 13 15 8 0
12 13 6 8 0
35 33 5 1 0
31 33 15 1 0
35 6 5 12 0
8 6 13 12 0
8 15 14 32 0
1 15 33 32 0
12 5 7 36 0
1 5 33 36 0
32 14 15 8 0
12 14 7 8 0
36 33 5 1 0
32 33 15 1 0
36 7 5 12 0
8 7 14 12 0
8 15 14 34 0
1 15 35 34 0
13 6 7 36 0
1 6 35 36 0
34 14 15 8 0
13 14 7 8 0
36 35 6 1 0
34 35 15 1 0
36 7 6 13 0
8 7 14 13 0
5 18 17 22 0
2 18 23 22 0
16 3 4 27 0
2 3 23 27 0
22 17 18 5 0
16 17 4 5 0
27 23 3 2 0
22 23 18 2 0
27 4 3 16 0
5 4 17 16 0
6 19 17 22 0
2 19 24 22 0
16 3 4 28 0
2 3 24 28 0
22 17 19 6 0
16 17 4 6 0
28 24 3 2 0
22 24 19 2 0
28 4 3 16 0
6 4 17 16 0
7 20 17 22 0
2 20 25 22 0
16 3 4 29 0
2 3 25 29 0
22 17 20 7 0
16 17 4 7 0
29 25 3 2 0
22 25 20 2 0
29 4 3 16 0
7 4 17 16 0
8 21 17 22 0
2 21 26 22 0
16 3 4 30 0
2 3 26 30 0
22 17 21 8 0
16 17 4 8 0
30 26 3 2 0
22 26 21 2 0
30 4 3 16 0
8 4 17 16 0
6 19 18 23 0
2 19 24 23 0
16 3 5 31 0
2 3 24 31 0
23 18 19 6 0
16 18 5 6 0
31 24 3 2 0
23 24 19 2 0
31 5 3 16 0
6 5 18 16 0
7 20 18 23 0
2 20 25 23 0
16 3 5 32 0
2 3 25 32 0
23 18 20 7 0
16 18 5 7 0
32 25 3 2 0
23 25 20 2 0
32 5 3 16 0
7 5 18 16 0
8 21 18 23 0
2 21 26 23 0
16 3 5 33 0
2 3 26 33 0
23 18 21 8 0
16 18 5 8 0
33 26 3 2 0
23 26 21 2 0
33 5 3 16 0
8 5 18 16 0
7 20 19 24 0
2 20 25 24 0
16 3 6 34 0
2 3 25 34 0
24 19 20 7 0
16 19 6 7 0
34 25 3 2 0
24 25 20 2 0
34 6 3 16 0
7 6 19 16 0
8 21 19 24 0
2 21 26 24 0
16 3 6 35 0
2 3 26 35 0
24 19 21 8 0
16 19 6 8 0
35 26 3 2 0
24 26 21 2 0
35 6 3 16 0
8 6 19 16 0
8 21 20 25 0
2 21 26 25 0
16 3 7 36 0
2 3 26 36 0
25 20 21 8 0
16 20 7 8 0
36 26 3 2 0
25 26 21 2 0
36 7 3 16 0
8 7 20 16 0
6 19 18 27 0
2 19 28 27 0
17 4 5 31 0
2 4 28 31 0
27 18 19 6 0
17 18 5 6 0
31 28 4 2 0
27 28 19 2 0
31 5 4 17 0
6 5 18 17 0
7 20 18 27 0
2 20 29 27 0
17 4 5 32 0
2 4 29 32 0
27 18 20 7 0
17 18 5 7 0
32 29 4 2 0
27 29 20 2 0
32 5 4 17 0
7 5 18 17 0
8 21 18 27 0
2 21 30 27 0
17 4 5 33 0
2 4 30 33 0
27 18 21 8 0
17 18 5 8 0
33 30 4 2 0
27 30 21 2 0
33 5 4 17 0
8 5 18 17 0
7 20 19 28 0
2 20 29 28 0
17 4 6 34 0
2 4 29 34 0
28 19 20 7 0
17 19 6 7 0
34 29 4 2 0
28 29 20 2 0
34 6 4 17 0
7 6 19 17 0
8 21 19 28 0
2 21 30 28 0
17 4 6 35 0
2 4 30 35 0
28 19 21 8 0
17 19 6 8 0
35 30 4 2 0
28 30 21 2 0
35 6 4 17 0
8 6 19 17 0
8 21 20 29 0
2 21 30 29 0
17 4 7 36 0
2 4 30 36 0
29 20 21 8 0
17 20 7 8 0
36 30 4 2 0
29 30 21 2 0
36 7 4 17 0
8 7 20 17 0
7 20 19 31 0
2 20 32 31 0
18 5 6 34 0
2 5 32 34 0
31 19 20 7 0
18 19 6 7 0
34 32 5 2 0
31 32 20 2 0
34 6 5 18 0
7 6 19 18 0
8 21 19 31 0
2 21 33 31 0
18 5 6 35 0
2 5 33 35 0
31 19 21 8 0
18 19 6 8 0
35 33 5 2 0
31 33 21 2 0
35 6 5 18 0
8 6 19 18 0
8 21 20 32 0
2 21 33 32 0
18 5 7 36 0
2 5 33 36 0
32 20 21 8 0
18 20 7 8 0
36 33 5 2 0
32 33 21 2 0
36 7 5 18 0
8 7 20 18 0
8 21 20 34 0
2 21 35 34 0
19 6 7 36 0
2 6 35 36 0
34 20 21 8 0
19 20 7 8 0
36 35 6 2 0
34 35 21 2 0
36 7 6 19 0
8 7 20 19 0
6 24 23 27 0
3 24 28 27 0
22 4 5 31 0
3 4 28 31 0
27 23 24 6 0
22 23 5 6 0
31 28 4 3 0
27 28 24 3 0
31 5 4 22 0
6 5 23 22 0
7 25 23 27 0
3 25 29 27 0
22 4 5 32 0
3 4 29 32 0
27 23 25 7 0
22 23 5 7 0
32 29 4 3 0
27 29 25 3 0
32 5 4 22 0
7 5 23 22 0
8 26 23 27 0
3 26 30 27 0
22 4 5 33 0
3 4 30 33 0
27 23 26 8 0
22 23 5 8 0
33 30 4 3 0
27 30 26 3 0
33 5 4 22 0
8 5 23 22 0
7 25 24 28 0
3 25 29 28 0
22 4 6 34 0
3 4 29 34 0
28 24 25 7 0
22 24 6 7 0
34 29 4 3 0
28 29 25 3 0
34 6 4 22 0
7 6 24 22 0
8 26 24 28 0
3 26 30 28 0
22 4 6 35 0
3 4 30 35 0
28 24 26 8 0
22 24 6 8 0
35 30 4 3 0
28 30 26 3 0
35 6 4 22 0
8 6 24 22 0
8 26 25 29 0
3 26 30 29 0
22 4 7 36 0
3 4 30 36 0
29 25 26 8 0
22 25 7 8 0
36 30 4 3 0
29 30 26 3 0
36 7 4 22 0
8 7 25 22 0
7 25 24 31 0
3 25 32 31 0
23 5 6 34 0
3 5 32 34 0
31 24 25 7 0
23 24 6 7 0
34 32 5 3 0
31 32 25 3 0
34 6 5 23 0
7 6 24 23 0
8 26 24 31 0
3 26 33 31 0
23 5 6 35 0
3 5 33 35 0
31 24 26 8 0
23 24 6 8 0
35 33 5 3 0
31 33 26 3 0
35 6 5 23 0
8 6 24 23 0
8 26 25 32 0
3 26 33 32 0
23 5 7 36 0
3 5 33 36 0
32 25 26 8 0
23 25 7 8 0
36 33 5 3 0
32 33 26 3 0
36 7 5 23 0
8 7 25 23 0
8 26 25 34 0
3 26 35 34 0
24 6 7 36 0
3 6 35 36 0
34 25 26 8 0
24 25 7 8 0
36 35 6 3 0
34 35 26 3 0
36 7 6 24 0
8 7 25 24 0
7 29 28 31 0
4 29 32 31 0
27 5 6 34 0
4 5 32 34 0
31 28 29 7 0
27 28 6 7 0
34 32 5 4 0
31 32 29 4 0
34 6 5 27 0
7 6 28 27 0
8 30 28 31 0
4 30 33 31 0
27 5 6 35 0
4 5 33 35 0
31 28 30 8 0
27 28 6 8 0
35 33 5 4 0
31 33 30 4 0
35 6 5 27 0
8 6 28 27 0
8 30 29 32 0
4 30 33 32 0
27 5 7 36 0
4 5 33 36 0
32 29 30 8 0
27 29 7 8 0
36 33 5 4 0
32 33 30 4 0
36 7 5 27 0
8 7 29 27 0
8 30 29 34 0
4 30 35 34 0
28 6 7 36 0
4 6 35 36 0
34 29 30 8 0
28 29 7 8 0
36 35 6 4 0
34 35 30 4 0
36 7 6 28 0
8 7 29 28 0
8 33 32 34 0
5 33 35 34 0
31 6 7 36 0
5 6 35 36 0
34 32 33 8 0
31 32 7 8 0
36 35 6 5 0
34 35 33 5 0
36 7 6 31 0
8 7 32 31 0
12 18 17 22 0
9 18 23 22 0
16 10 11 27 0
9 10 23 27 0
22 17 18 12 0
16 17 11 12 0
27 23 10 9 0
22 23 18 9 0
27 11 10 16 0
12 11 17 16 0
13 19 17 22 0
9 19 24 22 0
16 10 11 28 0
9 10 24 28 0
22 17 19 13 0
16 17 11 13 0
28 24 10 9 0
22 24 19 9 0
28 11 10 16 0
13 11 17 16 0
14 20 17 22 0
9 20 25 22 0
16 10 11 29 0
9 10 25 29 0
22 17 20 14 0
16 17 11 14 0
29 25 10 9 0
22 25 20 9 0
29 11 10 16 0
14 11 17 16 0
15 21 17 22 0
9 21 26 22 0
16 10 11 30 0
9 10 26 30 0
22 17 21 15 0
16 17 11 15 0
30 26 10 9 0
22 26 21 9 0
30 11 10 16 0
15 11 17 16 0
13 19 18 23 0
9 19 24 23 0
16 10 12 31 0
9 10 24 31 0
23 18 19 13 0
16 18 12 13 0
31 24 10 9 0
23 24 19 9 0
31 12 10 16 0
13 12 18 16 0
14 20 18 23 0
9 20 25 23 0
16 10 12 32 0
9 10 25 32 0
23 18 20 14 0
16 18 12 14 0
32 25 10 9 0
23 25 20 9 0
32 12 10 16 0
14 12 18 16 0
15 21 18 23 0
9 21 26 23 0
16 10 12 33 0
9 10 26 33 0
23 18 21 15 0
16 18 12 15 0
33 26 10 9 0
23 26 21 9 0
33 12 10 16 0
15 12 18 16 0
14 20 19 24 0
9 20 25 24 0
16 10 13 34 0
9 10 25 34 0
24 19 20 14 0
16 19 13 14 0
34 25 10 9 0
24 25 20 9 0
34 13 10 16 0
14 13 19 16 0
15 21 19 24 0
9 21 26 24 0
16 10 13 35 0
9 10 26 35 0
24 19 21 15 0
16 19 13 15 0
35 26 10 9 0
24 26 21 9 0
35 13 10 16 0
15 13 19 16 0
15 21 20 25 0
9 21 26 25 0
16 10 14 36 0
9 10 26 36 0
25 20 21 15 0
16 20 14 15 0
36 26 10 9 0
25 26 21 9 0
36 14 10 16 0
15 14 20 16 0
13 19 18 27 0
9 19 28 27 0
17 11 12 31 0
9 11 28 31 0
27 18 19 13 0
17 18 12 13 0
31 28 11 9 0
27 28 19 9 0
31 12 11 17 0
13 12 18 17 0
14 20 18 27 0
9 20 29 27 0
17 11 12 32 0
9 11 29 32 0
27 18 20 14 0
17 18 12 14 0
32 29 11 9 0
27 29 20 9 0
32 12 11 17 0
14 12 18 17 0
15 21 18 27 0
9 21 30 27 0
17 11 12 33 0
9 11 30 33 0
27 18 21 15 0
17 18 12 15 0
33 30 11 9 0
27 30 21 9 0
33 12 11 17 0
15 12 18 17 0
14 20 19 28 0
9 20 29 28 0
17 11 13 34 0
9 11 29 34 0
28 19 20 14 0
17 19 13 14 0
34 29 11 9 0
28 29 20 9 0
34 13 11 17 0
14 13 19 17 0
15 21 19 28 0
9 21 30 28 0
17 11 13 35 0
9 11 30 35 0
28 19 21 15 0
17 19 13 15 0
35 30 11 9 0
28 30 21 9 0
35 13 11 17 0
15 13 19 17 0
15 21 20 29 0
9 21 30 29 0
17 11 14 36 0
9 11 30 36 0
29 20 21 15 0
17 20 14 15 0
36 30 11 9 0
29 30 21 9 0
36 14 11 17 0
15 14 20 17 0
14 20 19 31 0
9 20 32 31 0
18 12 13 34 0
9 12 32 34 0
31 19 20 14 0
18 19 13 14 0
34 32 12 9 0
31 32 20 9 0
34 13 12 18 0
14 13 19 18 0
15 21 19 31 0
9 21 33 31 0
18 12 13 35 0
9 12 33 35 0
31 19 21 15 0
18 19 13 15 0
35 33 12 9 0
31 33 21 9 0
35 13 12 18 0
15 13 19 18 0
15 21 20 32 0
9 21 33 32 0
18 12 14 36 0
9 12 33 36 0
32 20 21 15 0
18 20 14 15 0
36 33 12 9 0
32 33 21 9 0
36 14 12 18 0
15 14 20 18 0
15 21 20 34 0
9 21 35 34 0
19 13 14 36 0
9 13 35 36 0
34 20 21 15 0
19 20 14 15 0
36 35 13 9 0
34 35 21 9 0
36 14 13 19 0
15 14 20 19 0
13 24 23 27 0
10 24 28 27 0
22 11 12 31 0
10 11 28 31 0
27 23 24 13 0
22 23 12 13 0
31 28 11 10 0
27 28 24 10 0
31 12 11 22 0
13 12 23 22 0
14 25 23 27 0
10 25 29 27 0
22 11 12 32 0
10 11 29 32 0
27 23 25 14 0
22 23 12 14 0
32 29 11 10 0
27 29 25 10 0
32 12 11 22 0
14 12 23 22 0
15 26 23 27 0
10 26 30 27 0
22 11 12 33 0
10 11 30 33 0
27 23 26 15 0
22 23 12 15 0
33 30 11 10 0
27 30 26 10 0
33 12 11 22 0
15 12 23 22 0
14 25 24 28 0
10 25 29 28 0
22 11 13 34 0
10 11 29 34 0
28 24 25 14 0
22 24 13 14 0
34 29 11 10 0
28 29 25 10 0
34 13 11 22 0
14 13 24 22 0
15 26 24 28 0
10 26 30 28 0
22 11 13 35 0
10 11 30 35 0
28 24 26 15 0
22 24 13 15 0
35 30 11 10 0
28 30 26 10 0
35 13 11 22 0
15 13 24 22 0
15 26 25 29 0
10 26 30 29 0
22 11 14 36 0
10 11 30 36 0
29 25 26 15 0
22 25 14 15 0
36 30 11 10 0
29 30 26 10 0
36 14 11 22 0
15 14 25 22 0
14 25 24 31 0
10 25 32 31 0
23 12 13 34 0
10 12 32 34 0
31 24 25 14 0
23 24 13 14 0
34 32 12 10 0
31 32 25 10 0
34 13 12 23 0
14 13 24 23 0
15 26 24 31 0
10 26 33 31 0
23 12 13 35 0
10 12 33 35 0
31 24 26 15 0
23 24 13 15 0
35 33 12 10 0
31 33 26 10 0
35 13 12 23 0
15 13 24 23 0
15 26 25 32 0
10 26 33 32 0
23 12 14 36 0
10 12 33 36 0
32 25 26 15 0
23 25 14 15 0
36 33 12 10 0
32 33 26 10 0
36 14 12 23 0
15 14 25 23 0
15 26 25 34 0
10 26 35 34 0
24 13 14 36 0
10 13 35 36 0
34 25 26 15 0
24 25 14 15 0
36 35 13 10 0
34 35 26 10 0
36 14 13 24 0
15 14 25 24 0
14 29 28 31 0
11 29 32 31 0
27 12 13 34 0
11 12 32 34 0
31 28 29 14 0
27 28 13 14 0
34 32 12 11 0
31 32 29 11 0
34 13 12 27 0
14 13 28 27 0
15 30 28 31 0
11 30 33 31 0
27 12 13 35 0
11 12 33 35 0
31 28 30 15 0
27 28 13 15 0
35 33 12 11 0
31 33 30 11 0
35 13 12 27 0
15 13 28 27 0
15 30 29 32 0
11 30 33 32 0
27 12 14 36 0
11 12 33 36 0
32 29 30 15 0
27 29 14 15 0
36 33 12 11 0
32 33 30 11 0
36 14 12 27 0
15 14 29 27 0
15 30 29 34 0
11 30 35 34 0
28 13 14 36 0
11 13 35 36 0
34 29 30 15 0
28 29 14 15 0
36 35 13 11 0
34 35 30 11 0
36 14 13 28 0
15 14 29 28 0
15 33 32 34 0
12 33 35 34 0
31 13 14 36 0
12 13 35 36 0
34 32 33 15 0
31 32 14 15 0
36 35 13 12 0
34 35 33 12 0
36 14 13 31 0
15 14 32 31 0
19 24 23 27 0
16 24 28 27 0
22 17 18 31 0
16 17 28 31 0
27 23 24 19 0
22 23 18 19 0
31 28 17 16 0
27 28 24 16 0
31 18 17 22 0
19 18 23 22 0
20 25 23 27 0
16 25 29 27 0
22 17 18 32 0
16 17 29 32 0
27 23 25 20 0
22 23 18 20 0
32 29 17 16 0
27 29 25 16 0
32 18 17 22 0
20 18 23 22 0
21 26 23 27 0
16 26 30 27 0
22 17 18 33 0
16 17 30 33 0
27 23 26 21 0
22 23 18 21 0
33 30 17 16 0
27 30 26 16 0
33 18 17 22 0
21 18 23 22 0
20 25 24 28 0
16 25 29 28 0
22 17 19 34 0
16 17 29 34 0
28 24 25 20 0
22 24 19 20 0
34 29 17 16 0
28 29 25 16 0
34 19 17 22 0
20 19 24 22 0
21 26 24 28 0
16 26 30 28 0
22 17 19 35 0
16 17 30 35 0
28 24 26 21 0
22 24 19 21 0
35 30 17 16 0
28 30 26 16 0
35 19 17 22 0
21 19 24 22 0
21 26 25 29 0
16 26 30 29 0
22 17 20 36 0
16 17 30 36 0
29 25 26 21 0
22 25 20 21 0
36 30 17 16 0
29 30 26 16 0
36 20 17 22 0
21 20 25 22 0
20 25 24 31 0
16 25 32 31 0
23 18 19 34 0
16 18 32 34 0
31 24 25 20 0
23 24 19 20 0
34 32 18 16 0
31 32 25 16 0
34 19 18 23 0
20 19 24 23 0
21 26 24 31 0
16 26 33 31 0
23 18 19 35 0
16 18 33 35 0
31 24 26 21 0
23 24 19 21 0
35 33 18 16 0
31 33 26 16 0
35 19 18 23 0
21 19 24 23 0
21 26 25 32 0
16 26 33 32 0
23 18 20 36 0
16 18 33 36 0
32 25 26 21 0
23 25 20 21 0
36 33 18 16 0
32 33 26 16 0
36 20 18 23 0
21 20 25 23 0
21 26 25 34 0
16 26 35 34 0
24 19 20 36 0
16 19 35 36 0
34 25 26 21 0
24 25 20 21 0
36 35 19 16 0
34 35 26 16 0
36 20 19 24 0
21 20 25 24 0
20 29 28 31 0
17 29 32 31 0
27 18 19 34 0
17 18 32 34 0
31 28 29 20 0
27 28 19 20 0
34 32 18 17 0
31 32 29 17 0
34 19 18 27 0
20 19 28 27 0
21 30 28 31 0
17 30 33 31 0
27 18 19 35 0
17 18 33 35 0
31 28 30 21 0
27 28 19 21 0
35 33 18 17 0
31 33 30 17 0
35 19 18 27 0
21 19 28 27 0
21 30 29 32 0
17 30 33 32 0
27 18 20 36 0
17 18 33 36 0
32 29 30 21 0
27 29 20 21 0
36 33 18 17 0
32 33 30 17 0
36 20 18 27 0
21 20 29 27 0
21 30 29 34 0
17 30 35 34 0
28 19 20 36 0
17 19 35 36 0
34 29 30 21 0
28 29 20 21 0
36 35 19 17 0
34 35 30 17 0
36 20 19 28 0
21 20 29 28 0
21 33 32 34 0
18 33 35 34 0
31 19 20 36 0
18 19 35 36 0
34 32 33 21 0
31 32 20 21 0
36 35 19 18 0
34 35 33 18 0
36 20 19 31 0
21 20 32 31 0
25 29 28 31 0
22 29 32 31 0
27 23 24 34 0
22 23 32 34 0
31 28 29 25 0
27 28 24 25 0
34 32 23 22 0
31 32 29 22 0
34 24 23 27 0
25 24 28 27 0
26 30 28 31 0
22 30 33 31 0
27 23 24 35 0
22 23 33 35 0
31 28 30 26 0
27 28 24 26 0
35 33 23 22 0
31 33 30 22 0
35 24 23 27 0
26 24 28 27 0
26 30 29 32 0
22 30 33 32 0
27 23 25 36 0
22 23 33 36 0
32 29 30 26 0
27 29 25 26 0
36 33 23 22 0
32 33 30 22 0
36 25 23 27 0
26 25 29 27 0
26 30 29 34 0
22 30 35 34 0
28 24 25 36 0
22 24 35 36 0
34 29 30 26 0
28 29 25 26 0
36 35 24 22 0
34 35 30 22 0
36 25 24 28 0
26 25 29 28 0
26 33 32 34 0
23 33 35 34 0
31 24 25 36 0
23 24 35 36 0
34 32 33 26 0
31 32 25 26 0
36 35 24 23 0
34 35 33 23 0
36 25 24 31 0
26 25 32 31 0
30 33 32 34 0
27 33 35 34 0
31 28 29 36 0
27 28 35 36 0
34 32 33 30 0
31 32 29 30 0
36 35 28 27 0
34 35 33 27 0
36 29 28 31 0
30 29 32 31 0
-1 -2 -9 0
-1 -3 -10 0
-1 -4 -11 0
-1 -5 -12 0
-1 -6 -13 0
-1 -7 -14 0
-1 -8 -15 0
-2 -3 -16 0
-2 -4 -17 0
-2 -5 -18 0
-2 -6 -19 0
-2 -7 -20 0
-2 -8 -21 0
-3 -4 -22 0
-3 -5 -23 0
-3 -6 -24 0
-3 -7 -25 0
-3 -8 -26 0
-4 -5 -27 0
-4 -6 -28 0
-4 -7 -29 0
-4 -8 -30 0
-5 -6 -31 0
-5 -7 -32 0
-5 -8 -33 0
-6 -7 -34 0
-6 -8 -35 0
-7 -8 -36 0
-9 -10 -16 0
-9 -11 -17 0
-9 -12 -18 0
-9 -13 -19 0
-9 -14 -20 0
-9 -15 -21 0
-10 -11 -22 0
-10 -12 -23 0
-10 -13 -24 0
-10 -14 -25 0
-10 -15 -26 0
-11 -12 -27 0
-11 -13 -28 0
-11 -14 -29 0
-11 -15 -30 0
-12 -13 -31 0
-12 -14 -32 0
-12 -15 -33 0
-13 -14 -34 0
-13 -15 -35 0
-14 -15 -36 0
-16 -17 -22 0
-16 -18 -23 0
-16 -19 -24 0
-16 -20 -25 0
-16 -21 -26 0
-17 -18 -27 0
-17 -19 -28 0
-17 -20 -29 0
-17 -21 -30 0
-18 -19 -31 0
-18 -20 -32 0
-18 -21 -33 0
-19 -20 -34 0
-19 -21 -35 0
-20 -21 -36 0
-22 -23 -27 0
-22 -24 -28 0
-22 -25 -29 0
-22 -26 -30 0
-23 -24 -31 0
-23 -25 -32 0
-23 -26 -33 0
-24 -25 -34 0
-24 -26 -35 0
-25 -26 -36 0
-27 -28 -31 0
-27 -29 -32 0
-27 -30 -33 0
-28 -29 -34 0
-28 -30 -35 0
-29 -30 -36 0
-31 -32 -34 0
-31 -33 -35 0
-32 -33 -36 0
-34 -35 -36 0
